! Created with skrf 2.0.1 (http://scikit-rf.org).
# Hz S RI R 50.0 
!freq ReS11 ImS11
!
100.0 -0.9999763748612474 1.0976012880255585e-06
105.925372517729 -0.9999763253638156 9.130876792771934e-07
112.201845430196 -0.9999767806415871 1.2990114774698252e-06
118.850222743702 -0.9999765648200353 6.937142147904354e-07
125.892541179417 -0.9999768875689401 8.156284606767308e-07
133.352143216332 -0.9999768432152842 5.511883588708274e-07
141.253754462275 -0.9999766864422449 1.2075535065885824e-06
149.623565609443 -0.999976540437995 5.881650740332442e-07
158.489319246111 -0.999976703050637 7.375985914046848e-07
167.880401812256 -0.9999768518755656 6.262749328689635e-07
177.827941003892 -0.9999769780559249 6.152128506879293e-07
188.36490894898 -0.9999768481990491 5.638987680417356e-07
199.526231496888 -0.9999767165218589 5.427976839446006e-07
211.348903983665 -0.9999767838495921 4.878958137054499e-07
223.872113856834 -0.9999765604243046 7.637415419206727e-07
237.137370566166 -0.9999765618923836 5.713396292989717e-07
251.188643150958 -0.9999766786335244 2.7261323628393724e-07
266.072505979881 -0.9999767598181365 1.0962635895542585e-06
281.838293126445 -0.9999769877091439 1.5319728960605428e-07
298.538261891796 -0.9999769972283068 8.359292002586294e-07
316.227766016838 -0.9999770714353303 5.357854618134395e-07
334.965439157828 -0.9999770272164169 7.261942568465743e-07
354.813389233575 -0.9999770436411842 4.2959528466008047e-07
375.837404288444 -0.9999769284858816 4.7444337223664095e-07
398.107170553497 -0.9999764169103793 5.484298059421468e-07
421.696503428582 -0.9999770093795413 5.733555969411522e-07
446.683592150963 -0.9999770219353749 4.0544109403464667e-07
473.15125896148 -0.9999771725130979 2.0103267248615265e-06
501.187233627272 -0.9999774834746326 8.784410913487702e-07
530.884444230988 -0.9999773244201563 8.36979237095532e-07
562.341325190349 -0.999977643311841 1.0651685029278071e-06
595.66214352901 -0.9999772591092217 1.026403634736225e-06
630.957344480193 -0.9999772508691739 7.470469642910455e-07
668.343917568615 -0.9999775886160437 1.139115937299772e-06
707.945784384138 -0.9999778208353216 1.4948973512483559e-06
749.894209332456 -0.9999775796406474 1.5974817592478378e-06
794.328234724281 -0.9999780272687186 1.1570019481285143e-06
841.395141645195 -0.9999783631433553 1.754389500513859e-06
891.250938133746 -0.9999779735806157 4.70581913059575e-06
944.060876285924 -0.9999785337676569 1.8746407514327607e-06
1000.0 -0.9999785208392409 1.7957358444886518e-06
1059.25372517729 -0.9999783322374495 2.5880142274253288e-06
1122.01845430196 -0.9999774513914376 2.9389053405299168e-06
1188.50222743702 -0.9999786754923424 2.9351154446233872e-06
1258.92541179417 -0.9999787918180915 3.531323918084057e-06
1333.52143216332 -0.9999785977804556 3.4285390261358024e-06
1412.53754462276 -0.9999785509608957 3.2935540750150387e-06
1496.23565609443 -0.9999788864249736 3.71582602580853e-06
1584.89319246111 -0.9999773071637388 4.869166654926745e-06
1678.80401812256 -0.9999787553302597 4.451039345092148e-06
1778.27941003892 -0.9999787736544985 4.5549680451578865e-06
1883.6490894898 -0.9999780616466751 7.295606341077127e-06
1995.26231496888 -0.9999794823480936 6.256089204888524e-06
2113.48903983665 -0.9999795450243845 6.471835032986799e-06
2238.72113856834 -0.9999792100566633 7.117420859831137e-06
2371.37370566166 -0.9999794349146682 7.310981229425887e-06
2511.88643150958 -0.9999793617321928 8.430194408489131e-06
2660.72505979881 -0.9999795638957337 9.034371631059089e-06
2818.38293126445 -0.9999795844801235 1.0267782838783579e-05
2985.38261891796 -0.9999775543054213 1.1499577198282488e-05
3162.27766016838 -0.9999793599893702 1.1235090461897572e-05
3349.65439157828 -0.9999813558290334 1.0756231358317629e-05
3548.13389233575 -0.9999746661747237 1.0280697811854317e-05
3758.37404288444 -0.9999783412387291 1.3345660526237617e-05
3981.07170553497 -0.9999778405811148 1.4163288325219961e-05
4216.96503428582 -0.9999787147337692 1.1204875983919404e-05
4466.83592150964 -0.9999759178959747 1.0496766175340876e-05
4731.5125896148 -0.9999779736179082 1.4181230150895272e-05
5011.87233627273 -0.999979686507899 1.4396309211605985e-05
5308.84444230988 -0.9999799407151768 1.5412726964728294e-05
5623.41325190349 -0.9999778321074677 1.3437043426388154e-05
5956.62143529011 -0.9999807916985969 1.8188152165990904e-05
6309.57344480193 -0.9999795407566758 2.0931779056615392e-05
6683.43917568615 -0.9999793974307346 2.2707713413354845e-05
7079.45784384138 -0.9999788913238217 2.5284770735672177e-05
7498.94209332456 -0.9999764965277318 2.1737411188184906e-05
7943.28234724282 -0.9999783388049227 2.8695592285603218e-05
8413.95141645195 -0.9999771033563086 3.166973320846048e-05
8912.50938133746 -0.9999768744181718 3.2773979038314496e-05
9440.60876285924 -0.9999754816498256 3.574980571301002e-05
10000.0 -0.9999742631956624 3.8335059595644925e-05
10592.5372517729 -0.9999731409755395 4.1283949547707936e-05
11220.1845430197 -0.9999718244398894 4.371517276708503e-05
11885.0222743702 -0.9999701540278206 4.6499861432071905e-05
12589.2541179417 -0.9999685723328109 4.8952573227137444e-05
13335.2143216332 -0.9999662047784713 5.195095986978853e-05
14125.3754462276 -0.9999644825880295 5.4785830273079114e-05
14962.3565609444 -0.9999613586431934 5.887116779041796e-05
15848.9319246111 -0.9999579362028457 6.295280895977698e-05
16788.0401812256 -0.9999548858948991 6.687530492439046e-05
17782.7941003892 -0.9999513815417158 6.975750240900192e-05
18836.490894898 -0.9999471169238242 7.36270623364418e-05
19952.6231496888 -0.9999427973598831 7.721558660562348e-05
21134.8903983665 -0.9999380885685667 8.077621197311112e-05
22387.2113856834 -0.9999317031801733 8.468209768617383e-05
23713.7370566166 -0.999926763495272 8.777204728428297e-05
25118.8643150958 -0.9999191802100419 9.147657510205385e-05
26607.2505979881 -0.9999122825199134 9.414026483288184e-05
28183.8293126445 -0.9999051547155359 9.560293225334807e-05
29853.8261891796 -0.99989836259771 9.709820243188064e-05
31622.7766016838 -0.999887883170256 9.851216969602151e-05
33496.5439157828 -0.9998829365749028 9.885096981790422e-05
35481.3389233576 -0.9998736354516483 9.849167948219257e-05
37583.7404288444 -0.9998643500155422 9.759997468311064e-05
39810.7170553497 -0.9998554813596383 9.52945997316564e-05
42169.6503428582 -0.9998471414419174 9.255967406343832e-05
44668.3592150963 -0.9998393533443525 9.0108015700812e-05
47315.1258961481 -0.9998316796517217 8.657818324048151e-05
50118.7233627273 -0.9998205025737504 7.987239616627975e-05
53088.4444230988 -0.999813687002614 7.387180967813994e-05
56234.1325190349 -0.9998042639343719 6.475887090353643e-05
59566.2143529011 -0.9997967661128322 5.574171613296274e-05
63095.7344480194 -0.9997905235055828 4.536400581342725e-05
66834.3917568615 -0.9997862237552075 3.447553307412862e-05
70794.5784384137 -0.9997824041946781 2.0115208935583715e-05
74989.4209332456 -0.9997807316727376 5.667834523923068e-06
79432.8234724282 -0.9997811589790535 -5.031446859090529e-06
84139.5141645196 -0.9997841589266188 -2.123861616331498e-05
89125.0938133746 -0.9997879932199168 -3.336972595113513e-05
94406.0876285923 -0.9997928690797433 -4.374771297443745e-05
100000.0 -0.9998008303338252 -5.495915073642944e-05
105925.372517729 -0.9998115212433926 -6.681228498913659e-05
112201.845430197 -0.9998212046236844 -7.41700973060565e-05
118850.222743702 -0.9998328276135352 -8.03782297689519e-05
125892.541179417 -0.9998438604823406 -8.487896277926938e-05
133352.143216332 -0.9998574998876513 -9.010456042833734e-05
141253.754462276 -0.9998705345283493 -9.093493479804013e-05
149623.565609444 -0.9998846188410725 -8.776366740658446e-05
158489.319246111 -0.9998947987499567 -8.501556745358419e-05
167880.401812256 -0.999905994401622 -8.011902464879526e-05
177827.941003892 -0.9999143291390099 -7.531758708118983e-05
188364.90894898 -0.9999237300436917 -6.908902458059742e-05
199526.231496888 -0.9999304656222613 -6.344322574989019e-05
211348.903983665 -0.9999372753248787 -5.599153352885382e-05
223872.113856834 -0.9999432142405892 -4.8520794640690546e-05
237137.370566166 -0.9999473635218314 -4.167765027894025e-05
251188.643150958 -0.9999515136256972 -3.3666260680758717e-05
266072.505979881 -0.9999541714821707 -2.6158160871381093e-05
281838.293126445 -0.9999558669467664 -1.859280806672211e-05
298538.261891796 -0.9999566760976666 -1.1489307767664408e-05
316227.766016838 -0.9999569037422829 -5.340172947382136e-06
334965.439157828 -0.9999568210679591 9.38632458217885e-07
354813.389233576 -0.9999563227868622 6.5081947051383336e-06
375837.404288444 -0.9999562881420239 1.2269205390145522e-05
398107.170553497 -0.9999557340435167 1.7936823433734995e-05
421696.503428582 -0.9999541521663289 2.3819581005600283e-05
446683.592150963 -0.9999533506073232 2.9772663745154866e-05
473151.258961481 -0.9999521775981163 3.55153496972854e-05
501187.233627272 -0.999950019410948 4.177658205091418e-05
530884.444230988 -0.9999475298344609 4.819797962376629e-05
562341.325190349 -0.9999449103570136 5.336350575868761e-05
595662.143529011 -0.9999422165099319 5.887995435433439e-05
630957.344480194 -0.9999394093912781 6.466622368204016e-05
668343.917568615 -0.9999356518329198 7.143658599936467e-05
707945.784384137 -0.9999303488431391 7.709441264585823e-05
749894.209332456 -0.9999236089109691 8.49373988865178e-05
794328.234724282 -0.9999140881307009 8.959834246971459e-05
841395.141645196 -0.9999039803981666 9.407475378873336e-05
891250.938133746 -0.9998924254523168 9.619273279787811e-05
944060.876285923 -0.9998795965889188 9.381032754171601e-05
1000000.0 -0.9998650732445393 8.637558893883669e-05
1059253.72517729 -0.9998539840488769 7.270434724361762e-05
1122018.45430196 -0.9998528706653723 5.173425534484744e-05
1188502.22743702 -0.9998618309134114 3.510530452615954e-05
1258925.41179417 -0.9998776804925938 2.629739904189995e-05
1333521.43216332 -0.9998951476430746 2.3158976806235355e-05
1412537.54462276 -0.9999102201163567 2.631639531494315e-05
1496235.65609443 -0.9999250885779561 3.282619033759496e-05
1584893.19246111 -0.9999346713120196 4.2197810445543754e-05
1678804.01812256 -0.9999437218007997 5.2532556516430965e-05
1778279.41003892 -0.9999500087560488 6.30088213643514e-05
1883649.0894898 -0.9999588605834523 7.295128548474848e-05
1995262.31496888 -0.9999601736188782 8.561811911237634e-05
2113489.03983665 -0.9999632394767487 9.84657742208174e-05
2238721.13856834 -0.9999706645100116 0.00010855560699761204
2371373.70566166 -0.9999753569028559 0.0001212064082436926
2511886.43150958 -0.9999793769589734 0.00013216702589866658
2660725.05979881 -0.9999820180684765 0.0001427533551496539
2818382.93126445 -0.999988575305506 0.00015810870024900024
2985382.61891796 -0.9999883098451166 0.00017218837992538942
3162277.66016838 -0.9999874166077927 0.00018360596767612558
3349654.39157828 -0.9999940882598163 0.00019473262809509149
3548133.89233575 -0.9999989973527463 0.00020345538373239258
3758374.04288444 -1.0000006567186488 0.00021445046636696564
3981071.70553498 -1.0000136338259535 0.00022521565830529582
4216965.03428582 -1.000022398847851 0.00023804368742491534
4466835.92150963 -1.000030291722778 0.00025116423354107885
4731512.5896148 -1.0000392323593825 0.0002679271500272617
5011872.33627272 -1.0000500028514496 0.00027909746600756285
5308844.44230989 -1.000061201018089 0.00029472022722386895
5623413.25190349 -1.0000747122134979 0.00030593123992106994
5956621.43529011 -1.0000975259159819 0.0003153596186400681
6309573.44480194 -1.0001170178041536 0.0003339704339780311
6683439.17568615 -1.0001314474097378 0.00035082433122739107
7079457.84384139 -1.0001480665124776 0.0003645613899269124
7498942.09332456 -1.000173406609314 0.00037012057034606285
7943282.34724282 -1.0002014799548415 0.00038900051584927125
8413951.41645196 -1.0002320555297035 0.00039523254925554347
8912509.38133746 -1.0002693713113522 0.0004053583599609436
9440608.76285925 -1.000295782363236 0.0004162959607057068
10000000.0 -1.0003324088030698 0.0004217862806057095
