! AD8317 input impedance model 'hold', 1 MHz - 10 GHz (see ad8317_input_model.py)
! Reference impedance 50 ohm. INLO is ac-coupled RF common.
! 1-port: INHI to ground (INLO ac-grounded).
# HZ S RI R 50
1.000000e+06 8.181817455e-01 -3.634900446e-04
1.023293e+06 8.185548175e-01 -3.714436988e-04
1.047129e+06 8.189280424e-01 -3.795702022e-04
1.071519e+06 8.193014205e-01 -3.878732806e-04
1.096478e+06 8.196749517e-01 -3.963567393e-04
1.122018e+06 8.200486361e-01 -4.050244645e-04
1.148154e+06 8.204224739e-01 -4.138804259e-04
1.174898e+06 8.207964652e-01 -4.229286772e-04
1.202264e+06 8.211706099e-01 -4.321733590e-04
1.230269e+06 8.215449083e-01 -4.416186999e-04
1.258925e+06 8.219193604e-01 -4.512690187e-04
1.288250e+06 8.222939662e-01 -4.611287263e-04
1.318257e+06 8.226687259e-01 -4.712023272e-04
1.348963e+06 8.230436396e-01 -4.814944222e-04
1.380384e+06 8.234187073e-01 -4.920097099e-04
1.412538e+06 8.237939291e-01 -5.027529886e-04
1.445440e+06 8.241693051e-01 -5.137291592e-04
1.479108e+06 8.245448354e-01 -5.249432265e-04
1.513561e+06 8.249205201e-01 -5.364003017e-04
1.548817e+06 8.252963593e-01 -5.481056047e-04
1.584893e+06 8.256723530e-01 -5.600644665e-04
1.621810e+06 8.260485013e-01 -5.722823310e-04
1.659587e+06 8.264248043e-01 -5.847647581e-04
1.698244e+06 8.268012622e-01 -5.975174256e-04
1.737801e+06 8.271778748e-01 -6.105461317e-04
1.778279e+06 8.275546425e-01 -6.238567977e-04
1.819701e+06 8.279315651e-01 -6.374554707e-04
1.862087e+06 8.283086429e-01 -6.513483259e-04
1.905461e+06 8.286858759e-01 -6.655416694e-04
1.949845e+06 8.290632641e-01 -6.800419411e-04
1.995262e+06 8.294408076e-01 -6.948557172e-04
2.041738e+06 8.298185066e-01 -7.099897133e-04
2.089296e+06 8.301963611e-01 -7.254507873e-04
2.137962e+06 8.305743711e-01 -7.412459421e-04
2.187762e+06 8.309525368e-01 -7.573823290e-04
2.238721e+06 8.313308582e-01 -7.738672505e-04
2.290868e+06 8.317093354e-01 -7.907081636e-04
2.344229e+06 8.320879684e-01 -8.079126830e-04
2.398833e+06 8.324667574e-01 -8.254885845e-04
2.454709e+06 8.328457024e-01 -8.434438079e-04
2.511886e+06 8.332248034e-01 -8.617864610e-04
2.570396e+06 8.336040606e-01 -8.805248229e-04
2.630268e+06 8.339834739e-01 -8.996673472e-04
2.691535e+06 8.343630435e-01 -9.192226662e-04
2.754229e+06 8.347427695e-01 -9.391995942e-04
2.818383e+06 8.351226518e-01 -9.596071316e-04
2.884032e+06 8.355026906e-01 -9.804544684e-04
2.951209e+06 8.358828859e-01 -1.001750988e-03
3.019952e+06 8.362632377e-01 -1.023506273e-03
3.090295e+06 8.366437461e-01 -1.045730106e-03
3.162278e+06 8.370244113e-01 -1.068432476e-03
3.235937e+06 8.374052331e-01 -1.091623584e-03
3.311311e+06 8.377862117e-01 -1.115313843e-03
3.388442e+06 8.381673471e-01 -1.139513888e-03
3.467369e+06 8.385486394e-01 -1.164234575e-03
3.548134e+06 8.389300885e-01 -1.189486990e-03
3.630781e+06 8.393116946e-01 -1.215282451e-03
3.715352e+06 8.396934577e-01 -1.241632515e-03
3.801894e+06 8.400753779e-01 -1.268548980e-03
3.890451e+06 8.404574550e-01 -1.296043893e-03
3.981072e+06 8.408396893e-01 -1.324129554e-03
4.073803e+06 8.412220806e-01 -1.352818520e-03
4.168694e+06 8.416046291e-01 -1.382123612e-03
4.265795e+06 8.419873347e-01 -1.412057920e-03
4.365158e+06 8.423701975e-01 -1.442634809e-03
4.466836e+06 8.427532175e-01 -1.473867921e-03
4.570882e+06 8.431363947e-01 -1.505771188e-03
4.677351e+06 8.435197291e-01 -1.538358831e-03
4.786301e+06 8.439032207e-01 -1.571645370e-03
4.897788e+06 8.442868695e-01 -1.605645626e-03
5.011872e+06 8.446706755e-01 -1.640374734e-03
5.128614e+06 8.450546388e-01 -1.675848142e-03
5.248075e+06 8.454387591e-01 -1.712081624e-03
5.370318e+06 8.458230367e-01 -1.749091280e-03
5.495409e+06 8.462074714e-01 -1.786893549e-03
5.623413e+06 8.465920632e-01 -1.825505212e-03
5.754399e+06 8.469768121e-01 -1.864943400e-03
5.888437e+06 8.473617180e-01 -1.905225603e-03
6.025596e+06 8.477467809e-01 -1.946369674e-03
6.165950e+06 8.481320007e-01 -1.988393837e-03
6.309573e+06 8.485173775e-01 -2.031316700e-03
6.456542e+06 8.489029110e-01 -2.075157253e-03
6.606934e+06 8.492886013e-01 -2.119934886e-03
6.760830e+06 8.496744482e-01 -2.165669390e-03
6.918310e+06 8.500604518e-01 -2.212380968e-03
7.079458e+06 8.504466118e-01 -2.260090244e-03
7.244360e+06 8.508329282e-01 -2.308818271e-03
7.413102e+06 8.512194009e-01 -2.358586537e-03
7.585776e+06 8.516060297e-01 -2.409416978e-03
7.762471e+06 8.519928145e-01 -2.461331986e-03
7.943282e+06 8.523797552e-01 -2.514354417e-03
8.128305e+06 8.527668517e-01 -2.568507600e-03
8.317638e+06 8.531541037e-01 -2.623815350e-03
8.511380e+06 8.535415111e-01 -2.680301973e-03
8.709636e+06 8.539290738e-01 -2.737992281e-03
8.912509e+06 8.543167914e-01 -2.796911598e-03
9.120108e+06 8.547046639e-01 -2.857085772e-03
9.332543e+06 8.550926910e-01 -2.918541187e-03
9.549926e+06 8.554808724e-01 -2.981304773e-03
9.772372e+06 8.558692079e-01 -3.045404015e-03
1.000000e+07 8.562576973e-01 -3.110866967e-03
1.023293e+07 8.566463403e-01 -3.177722262e-03
1.047129e+07 8.570351365e-01 -3.245999124e-03
1.071519e+07 8.574240857e-01 -3.315727381e-03
1.096478e+07 8.578131875e-01 -3.386937474e-03
1.122018e+07 8.582024416e-01 -3.459660474e-03
1.148154e+07 8.585918477e-01 -3.533928090e-03
1.174898e+07 8.589814052e-01 -3.609772687e-03
1.202264e+07 8.593711139e-01 -3.687227294e-03
1.230269e+07 8.597609733e-01 -3.766325619e-03
1.258925e+07 8.601509830e-01 -3.847102065e-03
1.288250e+07 8.605411424e-01 -3.929591742e-03
1.318257e+07 8.609314511e-01 -4.013830481e-03
1.348963e+07 8.613219086e-01 -4.099854848e-03
1.380384e+07 8.617125142e-01 -4.187702161e-03
1.412538e+07 8.621032675e-01 -4.277410502e-03
1.445440e+07 8.624941678e-01 -4.369018737e-03
1.479108e+07 8.628852145e-01 -4.462566525e-03
1.513561e+07 8.632764069e-01 -4.558094339e-03
1.548817e+07 8.636677444e-01 -4.655643481e-03
1.584893e+07 8.640592261e-01 -4.755256098e-03
1.621810e+07 8.644508514e-01 -4.856975198e-03
1.659587e+07 8.648426193e-01 -4.960844670e-03
1.698244e+07 8.652345291e-01 -5.066909299e-03
1.737801e+07 8.656265800e-01 -5.175214784e-03
1.778279e+07 8.660187708e-01 -5.285807756e-03
1.819701e+07 8.664111008e-01 -5.398735800e-03
1.862087e+07 8.668035689e-01 -5.514047469e-03
1.905461e+07 8.671961739e-01 -5.631792306e-03
1.949845e+07 8.675889149e-01 -5.752020863e-03
1.995262e+07 8.679817906e-01 -5.874784720e-03
2.041738e+07 8.683747999e-01 -6.000136507e-03
2.089296e+07 8.687679414e-01 -6.128129925e-03
2.137962e+07 8.691612139e-01 -6.258819765e-03
2.187762e+07 8.695546160e-01 -6.392261931e-03
2.238721e+07 8.699481461e-01 -6.528513461e-03
2.290868e+07 8.703418029e-01 -6.667632551e-03
2.344229e+07 8.707355847e-01 -6.809678576e-03
2.398833e+07 8.711294898e-01 -6.954712114e-03
2.454709e+07 8.715235166e-01 -7.102794970e-03
2.511886e+07 8.719176632e-01 -7.253990198e-03
2.570396e+07 8.723119278e-01 -7.408362130e-03
2.630268e+07 8.727063083e-01 -7.565976396e-03
2.691535e+07 8.731008029e-01 -7.726899951e-03
2.754229e+07 8.734954092e-01 -7.891201104e-03
2.818383e+07 8.738901250e-01 -8.058949538e-03
2.884032e+07 8.742849482e-01 -8.230216346e-03
2.951209e+07 8.746798761e-01 -8.405074047e-03
3.019952e+07 8.750749062e-01 -8.583596625e-03
3.090295e+07 8.754700360e-01 -8.765859551e-03
3.162278e+07 8.758652626e-01 -8.951939811e-03
3.235937e+07 8.762605832e-01 -9.141915940e-03
3.311311e+07 8.766559947e-01 -9.335868049e-03
3.388442e+07 8.770514941e-01 -9.533877858e-03
3.467369e+07 8.774470780e-01 -9.736028722e-03
3.548134e+07 8.778427430e-01 -9.942405669e-03
3.630781e+07 8.782384855e-01 -1.015309543e-02
3.715352e+07 8.786343019e-01 -1.036818646e-02
3.801894e+07 8.790301883e-01 -1.058776901e-02
3.890451e+07 8.794261406e-01 -1.081193509e-02
3.981072e+07 8.798221546e-01 -1.104077860e-02
4.073803e+07 8.802182260e-01 -1.127439526e-02
4.168694e+07 8.806143501e-01 -1.151288274e-02
4.265795e+07 8.810105223e-01 -1.175634063e-02
4.365158e+07 8.814067374e-01 -1.200487052e-02
4.466836e+07 8.818029904e-01 -1.225857599e-02
4.570882e+07 8.821992759e-01 -1.251756271e-02
4.677351e+07 8.825955881e-01 -1.278193844e-02
4.786301e+07 8.829919213e-01 -1.305181306e-02
4.897788e+07 8.833882694e-01 -1.332729864e-02
5.011872e+07 8.837846259e-01 -1.360850949e-02
5.128614e+07 8.841809842e-01 -1.389556213e-02
5.248075e+07 8.845773375e-01 -1.418857544e-02
5.370318e+07 8.849736785e-01 -1.448767061e-02
5.495409e+07 8.853699997e-01 -1.479297124e-02
5.623413e+07 8.857662933e-01 -1.510460335e-02
5.754399e+07 8.861625511e-01 -1.542269546e-02
5.888437e+07 8.865587647e-01 -1.574737860e-02
6.025596e+07 8.869549252e-01 -1.607878640e-02
6.165950e+07 8.873510235e-01 -1.641705510e-02
6.309573e+07 8.877470499e-01 -1.676232361e-02
6.456542e+07 8.881429944e-01 -1.711473356e-02
6.606934e+07 8.885388466e-01 -1.747442937e-02
6.760830e+07 8.889345958e-01 -1.784155827e-02
6.918310e+07 8.893302306e-01 -1.821627038e-02
7.079458e+07 8.897257393e-01 -1.859871873e-02
7.244360e+07 8.901211097e-01 -1.898905937e-02
7.413102e+07 8.905163289e-01 -1.938745134e-02
7.585776e+07 8.909113838e-01 -1.979405682e-02
7.762471e+07 8.913062605e-01 -2.020904111e-02
7.943282e+07 8.917009447e-01 -2.063257275e-02
8.128305e+07 8.920954214e-01 -2.106482351e-02
8.317638e+07 8.924896750e-01 -2.150596852e-02
8.511380e+07 8.928836893e-01 -2.195618628e-02
8.709636e+07 8.932774473e-01 -2.241565875e-02
8.912509e+07 8.936709316e-01 -2.288457139e-02
9.120108e+07 8.940641237e-01 -2.336311323e-02
9.332543e+07 8.944570047e-01 -2.385147697e-02
9.549926e+07 8.948495547e-01 -2.434985897e-02
9.772372e+07 8.952417531e-01 -2.485845939e-02
1.000000e+08 8.956335783e-01 -2.537748221e-02
1.023293e+08 8.960250081e-01 -2.590713533e-02
1.047129e+08 8.964160191e-01 -2.644763062e-02
1.071519e+08 8.968065871e-01 -2.699918399e-02
1.096478e+08 8.971966870e-01 -2.756201545e-02
1.122018e+08 8.975862924e-01 -2.813634923e-02
1.148154e+08 8.979753762e-01 -2.872241380e-02
1.174898e+08 8.983639098e-01 -2.932044197e-02
1.202264e+08 8.987518638e-01 -2.993067095e-02
1.230269e+08 8.991392074e-01 -3.055334245e-02
1.258925e+08 8.995259085e-01 -3.118870273e-02
1.288250e+08 8.999119340e-01 -3.183700270e-02
1.318257e+08 9.002972492e-01 -3.249849799e-02
1.348963e+08 9.006818179e-01 -3.317344902e-02
1.380384e+08 9.010656029e-01 -3.386212110e-02
1.412538e+08 9.014485650e-01 -3.456478451e-02
1.445440e+08 9.018306638e-01 -3.528171456e-02
1.479108e+08 9.022118569e-01 -3.601319171e-02
1.513561e+08 9.025921006e-01 -3.675950160e-02
1.548817e+08 9.029713492e-01 -3.752093522e-02
1.584893e+08 9.033495551e-01 -3.829778892e-02
1.621810e+08 9.037266691e-01 -3.909036452e-02
1.659587e+08 9.041026397e-01 -3.989896942e-02
1.698244e+08 9.044774136e-01 -4.072391666e-02
1.737801e+08 9.048509351e-01 -4.156552505e-02
1.778279e+08 9.052231466e-01 -4.242411920e-02
1.819701e+08 9.055939880e-01 -4.330002968e-02
1.862087e+08 9.059633968e-01 -4.419359306e-02
1.905461e+08 9.063313080e-01 -4.510515203e-02
1.949845e+08 9.066976542e-01 -4.603505550e-02
1.995262e+08 9.070623652e-01 -4.698365865e-02
2.041738e+08 9.074253679e-01 -4.795132310e-02
2.089296e+08 9.077865864e-01 -4.893841693e-02
2.137962e+08 9.081459420e-01 -4.994531483e-02
2.187762e+08 9.085033525e-01 -5.097239816e-02
2.238721e+08 9.088587328e-01 -5.202005509e-02
2.290868e+08 9.092119942e-01 -5.308868064e-02
2.344229e+08 9.095630446e-01 -5.417867685e-02
2.398833e+08 9.099117883e-01 -5.529045280e-02
2.454709e+08 9.102581258e-01 -5.642442476e-02
2.511886e+08 9.106019538e-01 -5.758101629e-02
2.570396e+08 9.109431647e-01 -5.876065830e-02
2.630268e+08 9.112816470e-01 -5.996378918e-02
2.691535e+08 9.116172845e-01 -6.119085489e-02
2.754229e+08 9.119499568e-01 -6.244230904e-02
2.818383e+08 9.122795385e-01 -6.371861304e-02
2.884032e+08 9.126058995e-01 -6.502023611e-02
2.951209e+08 9.129289046e-01 -6.634765546e-02
3.019952e+08 9.132484133e-01 -6.770135632e-02
3.090295e+08 9.135642797e-01 -6.908183210e-02
3.162278e+08 9.138763522e-01 -7.048958441e-02
3.235937e+08 9.141844733e-01 -7.192512319e-02
3.311311e+08 9.144884796e-01 -7.338896680e-02
3.388442e+08 9.147882011e-01 -7.488164211e-02
3.467369e+08 9.150834614e-01 -7.640368456e-02
3.548134e+08 9.153740775e-01 -7.795563828e-02
3.630781e+08 9.156598589e-01 -7.953805613e-02
3.715352e+08 9.159406083e-01 -8.115149982e-02
3.801894e+08 9.162161205e-01 -8.279653995e-02
3.890451e+08 9.164861826e-01 -8.447375611e-02
3.981072e+08 9.167505736e-01 -8.618373693e-02
4.073803e+08 9.170090639e-01 -8.792708016e-02
4.168694e+08 9.172614154e-01 -8.970439271e-02
4.265795e+08 9.175073807e-01 -9.151629073e-02
4.365158e+08 9.177467033e-01 -9.336339966e-02
4.466836e+08 9.179791169e-01 -9.524635425e-02
4.570882e+08 9.182043450e-01 -9.716579863e-02
4.677351e+08 9.184221009e-01 -9.912238635e-02
4.786301e+08 9.186320869e-01 -1.011167804e-01
4.897788e+08 9.188339943e-01 -1.031496531e-01
5.011872e+08 9.190275029e-01 -1.052216865e-01
5.128614e+08 9.192122802e-01 -1.073335719e-01
5.248075e+08 9.193879818e-01 -1.094860102e-01
5.370318e+08 9.195542500e-01 -1.116797116e-01
5.495409e+08 9.197107141e-01 -1.139153961e-01
5.623413e+08 9.198569897e-01 -1.161937928e-01
5.754399e+08 9.199926782e-01 -1.185156402e-01
5.888437e+08 9.201173661e-01 -1.208816862e-01
6.025596e+08 9.202306249e-01 -1.232926881e-01
6.165950e+08 9.203320105e-01 -1.257494122e-01
6.309573e+08 9.204210624e-01 -1.282526339e-01
6.456542e+08 9.204973033e-01 -1.308031377e-01
6.606934e+08 9.205602387e-01 -1.334017169e-01
6.760830e+08 9.206093562e-01 -1.360491736e-01
6.918310e+08 9.206441249e-01 -1.387463183e-01
7.079458e+08 9.206639946e-01 -1.414939701e-01
7.244360e+08 9.206683955e-01 -1.442929564e-01
7.413102e+08 9.206567376e-01 -1.471441123e-01
7.585776e+08 9.206284098e-01 -1.500482808e-01
7.762471e+08 9.205827790e-01 -1.530063127e-01
7.943282e+08 9.205191902e-01 -1.560190656e-01
8.128305e+08 9.204369651e-01 -1.590874042e-01
8.317638e+08 9.203354015e-01 -1.622122001e-01
8.511380e+08 9.202137728e-01 -1.653943306e-01
8.709636e+08 9.200713273e-01 -1.686346794e-01
8.912509e+08 9.199072868e-01 -1.719341353e-01
9.120108e+08 9.187029552e-01 -1.759758775e-01
9.332543e+08 9.167093631e-01 -1.806215143e-01
9.549926e+08 9.146701561e-01 -1.853812543e-01
9.772372e+08 9.125829213e-01 -1.902574425e-01
1.000000e+09 9.104451291e-01 -1.952524387e-01
1.023293e+09 9.082541284e-01 -2.003686136e-01
1.047129e+09 9.060071411e-01 -2.056083463e-01
1.071519e+09 9.037012572e-01 -2.109740199e-01
1.096478e+09 9.013334292e-01 -2.164680181e-01
1.122018e+09 8.989004670e-01 -2.220927202e-01
1.148154e+09 8.963990319e-01 -2.278504969e-01
1.174898e+09 8.938256311e-01 -2.337437044e-01
1.202264e+09 8.911766121e-01 -2.397746792e-01
1.230269e+09 8.884481566e-01 -2.459457317e-01
1.258925e+09 8.856362746e-01 -2.522591392e-01
1.288250e+09 8.827367988e-01 -2.587171391e-01
1.318257e+09 8.797453785e-01 -2.653219207e-01
1.348963e+09 8.766574735e-01 -2.720756165e-01
1.380384e+09 8.734683486e-01 -2.789802936e-01
1.412538e+09 8.701730678e-01 -2.860379433e-01
1.445440e+09 8.667664884e-01 -2.932504709e-01
1.479108e+09 8.632432559e-01 -3.006196839e-01
1.513561e+09 8.595977983e-01 -3.081472804e-01
1.548817e+09 8.558243218e-01 -3.158348358e-01
1.584893e+09 8.519168056e-01 -3.236837893e-01
1.621810e+09 8.478689979e-01 -3.316954285e-01
1.659587e+09 8.436744120e-01 -3.398708747e-01
1.698244e+09 8.393263235e-01 -3.482110656e-01
1.737801e+09 8.348177669e-01 -3.567167382e-01
1.778279e+09 8.301415348e-01 -3.653884099e-01
1.819701e+09 8.252901759e-01 -3.742263595e-01
1.862087e+09 8.202559955e-01 -3.832306060e-01
1.905461e+09 8.148662496e-01 -3.923303516e-01
1.949845e+09 8.081331910e-01 -4.010875054e-01
1.995262e+09 8.012168108e-01 -4.099865266e-01
2.041738e+09 7.941095883e-01 -4.190259734e-01
2.089296e+09 7.868038230e-01 -4.282040738e-01
2.137962e+09 7.792916423e-01 -4.375187045e-01
2.187762e+09 7.715650106e-01 -4.469673686e-01
2.238721e+09 7.616589103e-01 -4.510567941e-01
2.290868e+09 7.511491026e-01 -4.534033431e-01
2.344229e+09 7.406945568e-01 -4.557455392e-01
2.398833e+09 7.302943690e-01 -4.580825679e-01
2.454709e+09 7.199476781e-01 -4.604136017e-01
2.511886e+09 7.096536655e-01 -4.627378004e-01
2.570396e+09 6.994115562e-01 -4.650543110e-01
2.630268e+09 6.892206185e-01 -4.673622682e-01
2.691535e+09 6.790801651e-01 -4.696607949e-01
2.754229e+09 6.689895531e-01 -4.719490020e-01
2.818383e+09 6.589481844e-01 -4.742259890e-01
2.884032e+09 6.489555065e-01 -4.764908444e-01
2.951209e+09 6.390110129e-01 -4.787426461e-01
3.019952e+09 6.291142433e-01 -4.809804616e-01
3.090295e+09 6.192647846e-01 -4.832033485e-01
3.162278e+09 6.094622707e-01 -4.854103551e-01
3.235937e+09 5.997063838e-01 -4.876005205e-01
3.311311e+09 5.899968544e-01 -4.897728757e-01
3.388442e+09 5.803334619e-01 -4.919264433e-01
3.467369e+09 5.707160353e-01 -4.940602389e-01
3.548134e+09 5.611444536e-01 -4.961732707e-01
3.630781e+09 5.514900753e-01 -4.908273235e-01
3.715352e+09 5.418020734e-01 -4.727555870e-01
3.801894e+09 5.323488786e-01 -4.546057257e-01
3.890451e+09 5.231106459e-01 -4.363564039e-01
3.981072e+09 5.140664838e-01 -4.179866862e-01
4.073803e+09 5.051943558e-01 -3.994760827e-01
4.168694e+09 4.964709791e-01 -3.808046108e-01
4.265795e+09 4.878717225e-01 -3.619528704e-01
4.365158e+09 4.793705040e-01 -3.429021387e-01
4.466836e+09 4.709396901e-01 -3.236344814e-01
4.570882e+09 4.625499985e-01 -3.041328859e-01
4.677351e+09 4.541704059e-01 -2.843814145e-01
4.786301e+09 4.457680645e-01 -2.643653817e-01
4.897788e+09 4.373082284e-01 -2.440715549e-01
5.011872e+09 4.287541962e-01 -2.234883807e-01
5.128614e+09 4.200672712e-01 -2.026062373e-01
5.248075e+09 4.112067455e-01 -1.814177120e-01
5.370318e+09 4.021299127e-01 -1.599179056e-01
5.495409e+09 3.927921145e-01 -1.381047610e-01
5.623413e+09 3.831468283e-01 -1.159794142e-01
5.754399e+09 3.731458018e-01 -9.354656533e-02
5.888437e+09 3.042791784e-01 -1.348929655e-01
6.025596e+09 2.086767741e-01 -1.955381287e-01
6.165950e+09 1.186980616e-01 -2.420931709e-01
6.309573e+09 3.486284569e-02 -2.773315306e-01
6.456542e+09 -4.274256888e-02 -3.035219805e-01
6.606934e+09 -1.142908726e-01 -3.224955183e-01
6.760830e+09 -1.800989730e-01 -3.357184853e-01
6.918310e+09 -2.405546414e-01 -3.443606687e-01
7.079458e+09 -2.960709780e-01 -3.493540984e-01
7.244360e+09 -3.470591273e-01 -3.514417333e-01
7.413102e+09 -3.939127442e-01 -3.512168039e-01
7.585776e+09 -4.369998861e-01 -3.491541427e-01
7.762471e+09 -4.766595057e-01 -3.456349254e-01
7.943282e+09 -5.132007165e-01 -3.409661202e-01
8.128305e+09 -5.290354084e-01 -3.410583208e-01
8.317638e+09 -5.365492710e-01 -3.434345331e-01
8.511380e+09 -5.441645029e-01 -3.456595295e-01
8.709636e+09 -5.518749364e-01 -3.477279717e-01
8.912509e+09 -5.596740446e-01 -3.496348211e-01
9.120108e+09 -5.675549593e-01 -3.513753681e-01
9.332543e+09 -5.755104927e-01 -3.529452588e-01
9.549926e+09 -5.835331604e-01 -3.543405214e-01
9.772372e+09 -5.916152081e-01 -3.555575896e-01
1.000000e+10 -5.997486393e-01 -3.565933251e-01
