! AD8317 input impedance model, 1 MHz - 10 GHz (datasheet Rev.D R||C table, see ad8317_input_model.py)
! Reference impedance 50 ohm. INLO is ac-coupled RF common.
! 2-port series element Zin between port1 (INHI) and port2 (INLO). Connect to rfsim ports 2 and 3.
# HZ S RI R 50
1.000000e+06 8.333332214e-01 -3.054325781e-04 1.666667786e-01 3.054325781e-04 1.666667786e-01 3.054325781e-04 8.333332214e-01 -3.054325781e-04
1.023293e+06 8.336467568e-01 -3.122226215e-04 1.663532432e-01 3.122226215e-04 1.663532432e-01 3.122226215e-04 8.336467568e-01 -3.122226215e-04
1.047129e+06 8.339605280e-01 -3.191626787e-04 1.660394720e-01 3.191626787e-04 1.660394720e-01 3.191626787e-04 8.339605280e-01 -3.191626787e-04
1.071519e+06 8.342745352e-01 -3.262560393e-04 1.657254648e-01 3.262560393e-04 1.657254648e-01 3.262560393e-04 8.342745352e-01 -3.262560393e-04
1.096478e+06 8.345887788e-01 -3.335060645e-04 1.654112212e-01 3.335060645e-04 1.654112212e-01 3.335060645e-04 8.345887788e-01 -3.335060645e-04
1.122018e+06 8.349032589e-01 -3.409161884e-04 1.650967411e-01 3.409161884e-04 1.650967411e-01 3.409161884e-04 8.349032589e-01 -3.409161884e-04
1.148154e+06 8.352179759e-01 -3.484899199e-04 1.647820241e-01 3.484899199e-04 1.647820241e-01 3.484899199e-04 8.352179759e-01 -3.484899199e-04
1.174898e+06 8.355329300e-01 -3.562308438e-04 1.644670700e-01 3.562308438e-04 1.644670700e-01 3.562308438e-04 8.355329300e-01 -3.562308438e-04
1.202264e+06 8.358481214e-01 -3.641426230e-04 1.641518786e-01 3.641426230e-04 1.641518786e-01 3.641426230e-04 8.358481214e-01 -3.641426230e-04
1.230269e+06 8.361635504e-01 -3.722289998e-04 1.638364496e-01 3.722289998e-04 1.638364496e-01 3.722289998e-04 8.361635504e-01 -3.722289998e-04
1.258925e+06 8.364792173e-01 -3.804937977e-04 1.635207827e-01 3.804937977e-04 1.635207827e-01 3.804937977e-04 8.364792173e-01 -3.804937977e-04
1.288250e+06 8.367951223e-01 -3.889409231e-04 1.632048777e-01 3.889409231e-04 1.632048777e-01 3.889409231e-04 8.367951223e-01 -3.889409231e-04
1.318257e+06 8.371112656e-01 -3.975743673e-04 1.628887344e-01 3.975743673e-04 1.628887344e-01 3.975743673e-04 8.371112656e-01 -3.975743673e-04
1.348963e+06 8.374276476e-01 -4.063982079e-04 1.625723524e-01 4.063982079e-04 1.625723524e-01 4.063982079e-04 8.374276476e-01 -4.063982079e-04
1.380384e+06 8.377442685e-01 -4.154166111e-04 1.622557315e-01 4.154166111e-04 1.622557315e-01 4.154166111e-04 8.377442685e-01 -4.154166111e-04
1.412538e+06 8.380611285e-01 -4.246338332e-04 1.619388715e-01 4.246338332e-04 1.619388715e-01 4.246338332e-04 8.380611285e-01 -4.246338332e-04
1.445440e+06 8.383782279e-01 -4.340542229e-04 1.616217721e-01 4.340542229e-04 1.616217721e-01 4.340542229e-04 8.383782279e-01 -4.340542229e-04
1.479108e+06 8.386955669e-01 -4.436822230e-04 1.613044331e-01 4.436822230e-04 1.613044331e-01 4.436822230e-04 8.386955669e-01 -4.436822230e-04
1.513561e+06 8.390131459e-01 -4.535223726e-04 1.609868541e-01 4.535223726e-04 1.609868541e-01 4.535223726e-04 8.390131459e-01 -4.535223726e-04
1.548817e+06 8.393309649e-01 -4.635793089e-04 1.606690351e-01 4.635793089e-04 1.606690351e-01 4.635793089e-04 8.393309649e-01 -4.635793089e-04
1.584893e+06 8.396490244e-01 -4.738577697e-04 1.603509756e-01 4.738577697e-04 1.603509756e-01 4.738577697e-04 8.396490244e-01 -4.738577697e-04
1.621810e+06 8.399673246e-01 -4.843625951e-04 1.600326754e-01 4.843625951e-04 1.600326754e-01 4.843625951e-04 8.399673246e-01 -4.843625951e-04
1.659587e+06 8.402858656e-01 -4.950987301e-04 1.597141344e-01 4.950987301e-04 1.597141344e-01 4.950987301e-04 8.402858656e-01 -4.950987301e-04
1.698244e+06 8.406046479e-01 -5.060712265e-04 1.593953521e-01 5.060712265e-04 1.593953521e-01 5.060712265e-04 8.406046479e-01 -5.060712265e-04
1.737801e+06 8.409236715e-01 -5.172852454e-04 1.590763285e-01 5.172852454e-04 1.590763285e-01 5.172852454e-04 8.409236715e-01 -5.172852454e-04
1.778279e+06 8.412429368e-01 -5.287460595e-04 1.587570632e-01 5.287460595e-04 1.587570632e-01 5.287460595e-04 8.412429368e-01 -5.287460595e-04
1.819701e+06 8.415624440e-01 -5.404590554e-04 1.584375560e-01 5.404590554e-04 1.584375560e-01 5.404590554e-04 8.415624440e-01 -5.404590554e-04
1.862087e+06 8.418821934e-01 -5.524297361e-04 1.581178066e-01 5.524297361e-04 1.581178066e-01 5.524297361e-04 8.418821934e-01 -5.524297361e-04
1.905461e+06 8.422021852e-01 -5.646637233e-04 1.577978148e-01 5.646637233e-04 1.577978148e-01 5.646637233e-04 8.422021852e-01 -5.646637233e-04
1.949845e+06 8.425224196e-01 -5.771667603e-04 1.574775804e-01 5.771667603e-04 1.574775804e-01 5.771667603e-04 8.425224196e-01 -5.771667603e-04
1.995262e+06 8.428428970e-01 -5.899447144e-04 1.571571030e-01 5.899447144e-04 1.571571030e-01 5.899447144e-04 8.428428970e-01 -5.899447144e-04
2.041738e+06 8.431636175e-01 -6.030035794e-04 1.568363825e-01 6.030035794e-04 1.568363825e-01 6.030035794e-04 8.431636175e-01 -6.030035794e-04
2.089296e+06 8.434845813e-01 -6.163494783e-04 1.565154187e-01 6.163494783e-04 1.565154187e-01 6.163494783e-04 8.434845813e-01 -6.163494783e-04
2.137962e+06 8.438057889e-01 -6.299886665e-04 1.561942111e-01 6.299886665e-04 1.561942111e-01 6.299886665e-04 8.438057889e-01 -6.299886665e-04
2.187762e+06 8.441272403e-01 -6.439275340e-04 1.558727597e-01 6.439275340e-04 1.558727597e-01 6.439275340e-04 8.441272403e-01 -6.439275340e-04
2.238721e+06 8.444489358e-01 -6.581726088e-04 1.555510642e-01 6.581726088e-04 1.555510642e-01 6.581726088e-04 8.444489358e-01 -6.581726088e-04
2.290868e+06 8.447708757e-01 -6.727305592e-04 1.552291243e-01 6.727305592e-04 1.552291243e-01 6.727305592e-04 8.447708757e-01 -6.727305592e-04
2.344229e+06 8.450930602e-01 -6.876081977e-04 1.549069398e-01 6.876081977e-04 1.549069398e-01 6.876081977e-04 8.450930602e-01 -6.876081977e-04
2.398833e+06 8.454154895e-01 -7.028124830e-04 1.545845105e-01 7.028124830e-04 1.545845105e-01 7.028124830e-04 8.454154895e-01 -7.028124830e-04
2.454709e+06 8.457381639e-01 -7.183505240e-04 1.542618361e-01 7.183505240e-04 1.542618361e-01 7.183505240e-04 8.457381639e-01 -7.183505240e-04
2.511886e+06 8.460610836e-01 -7.342295825e-04 1.539389164e-01 7.342295825e-04 1.539389164e-01 7.342295825e-04 8.460610836e-01 -7.342295825e-04
2.570396e+06 8.463842488e-01 -7.504570767e-04 1.536157512e-01 7.504570767e-04 1.536157512e-01 7.504570767e-04 8.463842488e-01 -7.504570767e-04
2.630268e+06 8.467076598e-01 -7.670405841e-04 1.532923402e-01 7.670405841e-04 1.532923402e-01 7.670405841e-04 8.467076598e-01 -7.670405841e-04
2.691535e+06 8.470313168e-01 -7.839878455e-04 1.529686832e-01 7.839878455e-04 1.529686832e-01 7.839878455e-04 8.470313168e-01 -7.839878455e-04
2.754229e+06 8.473552200e-01 -8.013067679e-04 1.526447800e-01 8.013067679e-04 1.526447800e-01 8.013067679e-04 8.473552200e-01 -8.013067679e-04
2.818383e+06 8.476793697e-01 -8.190054284e-04 1.523206303e-01 8.190054284e-04 1.523206303e-01 8.190054284e-04 8.476793697e-01 -8.190054284e-04
2.884032e+06 8.480037660e-01 -8.370920777e-04 1.519962340e-01 8.370920777e-04 1.519962340e-01 8.370920777e-04 8.480037660e-01 -8.370920777e-04
2.951209e+06 8.483284092e-01 -8.555751436e-04 1.516715908e-01 8.555751436e-04 1.516715908e-01 8.555751436e-04 8.483284092e-01 -8.555751436e-04
3.019952e+06 8.486532995e-01 -8.744632349e-04 1.513467005e-01 8.744632349e-04 1.513467005e-01 8.744632349e-04 8.486532995e-01 -8.744632349e-04
3.090295e+06 8.489784372e-01 -8.937651454e-04 1.510215628e-01 8.937651454e-04 1.510215628e-01 8.937651454e-04 8.489784372e-01 -8.937651454e-04
3.162278e+06 8.493038224e-01 -9.134898575e-04 1.506961776e-01 9.134898575e-04 1.506961776e-01 9.134898575e-04 8.493038224e-01 -9.134898575e-04
3.235937e+06 8.496294553e-01 -9.336465463e-04 1.503705447e-01 9.336465463e-04 1.503705447e-01 9.336465463e-04 8.496294553e-01 -9.336465463e-04
3.311311e+06 8.499553362e-01 -9.542445837e-04 1.500446638e-01 9.542445837e-04 1.500446638e-01 9.542445837e-04 8.499553362e-01 -9.542445837e-04
3.388442e+06 8.502814652e-01 -9.752935426e-04 1.497185348e-01 9.752935426e-04 1.497185348e-01 9.752935426e-04 8.502814652e-01 -9.752935426e-04
3.467369e+06 8.506078426e-01 -9.968032012e-04 1.493921574e-01 9.968032012e-04 1.493921574e-01 9.968032012e-04 8.506078426e-01 -9.968032012e-04
3.548134e+06 8.509344686e-01 -1.018783547e-03 1.490655314e-01 1.018783547e-03 1.490655314e-01 1.018783547e-03 8.509344686e-01 -1.018783547e-03
3.630781e+06 8.512613433e-01 -1.041244782e-03 1.487386567e-01 1.041244782e-03 1.487386567e-01 1.041244782e-03 8.512613433e-01 -1.041244782e-03
3.715352e+06 8.515884669e-01 -1.064197326e-03 1.484115331e-01 1.064197326e-03 1.484115331e-01 1.064197326e-03 8.515884669e-01 -1.064197326e-03
3.801894e+06 8.519158397e-01 -1.087651821e-03 1.480841603e-01 1.087651821e-03 1.480841603e-01 1.087651821e-03 8.519158397e-01 -1.087651821e-03
3.890451e+06 8.522434617e-01 -1.111619140e-03 1.477565383e-01 1.111619140e-03 1.477565383e-01 1.111619140e-03 8.522434617e-01 -1.111619140e-03
3.981072e+06 8.525713333e-01 -1.136110385e-03 1.474286667e-01 1.136110385e-03 1.474286667e-01 1.136110385e-03 8.525713333e-01 -1.136110385e-03
4.073803e+06 8.528994545e-01 -1.161136898e-03 1.471005455e-01 1.161136898e-03 1.471005455e-01 1.161136898e-03 8.528994545e-01 -1.161136898e-03
4.168694e+06 8.532278255e-01 -1.186710262e-03 1.467721745e-01 1.186710262e-03 1.467721745e-01 1.186710262e-03 8.532278255e-01 -1.186710262e-03
4.265795e+06 8.535564465e-01 -1.212842308e-03 1.464435535e-01 1.212842308e-03 1.464435535e-01 1.212842308e-03 8.535564465e-01 -1.212842308e-03
4.365158e+06 8.538853177e-01 -1.239545119e-03 1.461146823e-01 1.239545119e-03 1.461146823e-01 1.239545119e-03 8.538853177e-01 -1.239545119e-03
4.466836e+06 8.542144391e-01 -1.266831038e-03 1.457855609e-01 1.266831038e-03 1.457855609e-01 1.266831038e-03 8.542144391e-01 -1.266831038e-03
4.570882e+06 8.545438111e-01 -1.294712671e-03 1.454561889e-01 1.294712671e-03 1.454561889e-01 1.294712671e-03 8.545438111e-01 -1.294712671e-03
4.677351e+06 8.548734336e-01 -1.323202891e-03 1.451265664e-01 1.323202891e-03 1.451265664e-01 1.323202891e-03 8.548734336e-01 -1.323202891e-03
4.786301e+06 8.552033068e-01 -1.352314847e-03 1.447966932e-01 1.352314847e-03 1.447966932e-01 1.352314847e-03 8.552033068e-01 -1.352314847e-03
4.897788e+06 8.555334308e-01 -1.382061971e-03 1.444665692e-01 1.382061971e-03 1.444665692e-01 1.382061971e-03 8.555334308e-01 -1.382061971e-03
5.011872e+06 8.558638059e-01 -1.412457977e-03 1.441361941e-01 1.412457977e-03 1.441361941e-01 1.412457977e-03 8.558638059e-01 -1.412457977e-03
5.128614e+06 8.561944320e-01 -1.443516874e-03 1.438055680e-01 1.443516874e-03 1.438055680e-01 1.443516874e-03 8.561944320e-01 -1.443516874e-03
5.248075e+06 8.565253094e-01 -1.475252968e-03 1.434746906e-01 1.475252968e-03 1.434746906e-01 1.475252968e-03 8.565253094e-01 -1.475252968e-03
5.370318e+06 8.568564380e-01 -1.507680872e-03 1.431435620e-01 1.507680872e-03 1.431435620e-01 1.507680872e-03 8.568564380e-01 -1.507680872e-03
5.495409e+06 8.571878180e-01 -1.540815509e-03 1.428121820e-01 1.540815509e-03 1.428121820e-01 1.540815509e-03 8.571878180e-01 -1.540815509e-03
5.623413e+06 8.575194495e-01 -1.574672118e-03 1.424805505e-01 1.574672118e-03 1.424805505e-01 1.574672118e-03 8.575194495e-01 -1.574672118e-03
5.754399e+06 8.578513326e-01 -1.609266264e-03 1.421486674e-01 1.609266264e-03 1.421486674e-01 1.609266264e-03 8.578513326e-01 -1.609266264e-03
5.888437e+06 8.581834673e-01 -1.644613843e-03 1.418165327e-01 1.644613843e-03 1.418165327e-01 1.644613843e-03 8.581834673e-01 -1.644613843e-03
6.025596e+06 8.585158536e-01 -1.680731089e-03 1.414841464e-01 1.680731089e-03 1.414841464e-01 1.680731089e-03 8.585158536e-01 -1.680731089e-03
6.165950e+06 8.588484916e-01 -1.717634579e-03 1.411515084e-01 1.717634579e-03 1.411515084e-01 1.717634579e-03 8.588484916e-01 -1.717634579e-03
6.309573e+06 8.591813814e-01 -1.755341246e-03 1.408186186e-01 1.755341246e-03 1.408186186e-01 1.755341246e-03 8.591813814e-01 -1.755341246e-03
6.456542e+06 8.595145230e-01 -1.793868380e-03 1.404854770e-01 1.793868380e-03 1.404854770e-01 1.793868380e-03 8.595145230e-01 -1.793868380e-03
6.606934e+06 8.598479164e-01 -1.833233637e-03 1.401520836e-01 1.833233637e-03 1.401520836e-01 1.833233637e-03 8.598479164e-01 -1.833233637e-03
6.760830e+06 8.601815616e-01 -1.873455051e-03 1.398184384e-01 1.873455051e-03 1.398184384e-01 1.873455051e-03 8.601815616e-01 -1.873455051e-03
6.918310e+06 8.605154585e-01 -1.914551037e-03 1.394845415e-01 1.914551037e-03 1.394845415e-01 1.914551037e-03 8.605154585e-01 -1.914551037e-03
7.079458e+06 8.608496072e-01 -1.956540399e-03 1.391503928e-01 1.956540399e-03 1.391503928e-01 1.956540399e-03 8.608496072e-01 -1.956540399e-03
7.244360e+06 8.611840076e-01 -1.999442341e-03 1.388159924e-01 1.999442341e-03 1.388159924e-01 1.999442341e-03 8.611840076e-01 -1.999442341e-03
7.413102e+06 8.615186596e-01 -2.043276475e-03 1.384813404e-01 2.043276475e-03 1.384813404e-01 2.043276475e-03 8.615186596e-01 -2.043276475e-03
7.585776e+06 8.618535633e-01 -2.088062826e-03 1.381464367e-01 2.088062826e-03 1.381464367e-01 2.088062826e-03 8.618535633e-01 -2.088062826e-03
7.762471e+06 8.621887184e-01 -2.133821846e-03 1.378112816e-01 2.133821846e-03 1.378112816e-01 2.133821846e-03 8.621887184e-01 -2.133821846e-03
7.943282e+06 8.625241250e-01 -2.180574416e-03 1.374758750e-01 2.180574416e-03 1.374758750e-01 2.180574416e-03 8.625241250e-01 -2.180574416e-03
8.128305e+06 8.628597829e-01 -2.228341862e-03 1.371402171e-01 2.228341862e-03 1.371402171e-01 2.228341862e-03 8.628597829e-01 -2.228341862e-03
8.317638e+06 8.631956919e-01 -2.277145959e-03 1.368043081e-01 2.277145959e-03 1.368043081e-01 2.277145959e-03 8.631956919e-01 -2.277145959e-03
8.511380e+06 8.635318520e-01 -2.327008944e-03 1.364681480e-01 2.327008944e-03 1.364681480e-01 2.327008944e-03 8.635318520e-01 -2.327008944e-03
8.709636e+06 8.638682628e-01 -2.377953522e-03 1.361317372e-01 2.377953522e-03 1.361317372e-01 2.377953522e-03 8.638682628e-01 -2.377953522e-03
8.912509e+06 8.642049243e-01 -2.430002879e-03 1.357950757e-01 2.430002879e-03 1.357950757e-01 2.430002879e-03 8.642049243e-01 -2.430002879e-03
9.120108e+06 8.645418363e-01 -2.483180689e-03 1.354581637e-01 2.483180689e-03 1.354581637e-01 2.483180689e-03 8.645418363e-01 -2.483180689e-03
9.332543e+06 8.648789984e-01 -2.537511129e-03 1.351210016e-01 2.537511129e-03 1.351210016e-01 2.537511129e-03 8.648789984e-01 -2.537511129e-03
9.549926e+06 8.652164105e-01 -2.593018881e-03 1.347835895e-01 2.593018881e-03 1.347835895e-01 2.593018881e-03 8.652164105e-01 -2.593018881e-03
9.772372e+06 8.655540722e-01 -2.649729150e-03 1.344459278e-01 2.649729150e-03 1.344459278e-01 2.649729150e-03 8.655540722e-01 -2.649729150e-03
1.000000e+07 8.658919833e-01 -2.707667674e-03 1.341080167e-01 2.707667674e-03 1.341080167e-01 2.707667674e-03 8.658919833e-01 -2.707667674e-03
1.023293e+07 8.662301434e-01 -2.766860730e-03 1.337698566e-01 2.766860730e-03 1.337698566e-01 2.766860730e-03 8.662301434e-01 -2.766860730e-03
1.047129e+07 8.665685521e-01 -2.827335151e-03 1.334314479e-01 2.827335151e-03 1.334314479e-01 2.827335151e-03 8.665685521e-01 -2.827335151e-03
1.071519e+07 8.669072091e-01 -2.889118331e-03 1.330927909e-01 2.889118331e-03 1.330927909e-01 2.889118331e-03 8.669072091e-01 -2.889118331e-03
1.096478e+07 8.672461139e-01 -2.952238245e-03 1.327538861e-01 2.952238245e-03 1.327538861e-01 2.952238245e-03 8.672461139e-01 -2.952238245e-03
1.122018e+07 8.675852662e-01 -3.016723453e-03 1.324147338e-01 3.016723453e-03 1.324147338e-01 3.016723453e-03 8.675852662e-01 -3.016723453e-03
1.148154e+07 8.679246653e-01 -3.082603117e-03 1.320753347e-01 3.082603117e-03 1.320753347e-01 3.082603117e-03 8.679246653e-01 -3.082603117e-03
1.174898e+07 8.682643109e-01 -3.149907011e-03 1.317356891e-01 3.149907011e-03 1.317356891e-01 3.149907011e-03 8.682643109e-01 -3.149907011e-03
1.202264e+07 8.686042023e-01 -3.218665534e-03 1.313957977e-01 3.218665534e-03 1.313957977e-01 3.218665534e-03 8.686042023e-01 -3.218665534e-03
1.230269e+07 8.689443389e-01 -3.288909723e-03 1.310556611e-01 3.288909723e-03 1.310556611e-01 3.288909723e-03 8.689443389e-01 -3.288909723e-03
1.258925e+07 8.692847202e-01 -3.360671267e-03 1.307152798e-01 3.360671267e-03 1.307152798e-01 3.360671267e-03 8.692847202e-01 -3.360671267e-03
1.288250e+07 8.696253455e-01 -3.433982520e-03 1.303746545e-01 3.433982520e-03 1.303746545e-01 3.433982520e-03 8.696253455e-01 -3.433982520e-03
1.318257e+07 8.699662140e-01 -3.508876512e-03 1.300337860e-01 3.508876512e-03 1.300337860e-01 3.508876512e-03 8.699662140e-01 -3.508876512e-03
1.348963e+07 8.703073251e-01 -3.585386966e-03 1.296926749e-01 3.585386966e-03 1.296926749e-01 3.585386966e-03 8.703073251e-01 -3.585386966e-03
1.380384e+07 8.706486779e-01 -3.663548312e-03 1.293513221e-01 3.663548312e-03 1.293513221e-01 3.663548312e-03 8.706486779e-01 -3.663548312e-03
1.412538e+07 8.709902715e-01 -3.743395701e-03 1.290097285e-01 3.743395701e-03 1.290097285e-01 3.743395701e-03 8.709902715e-01 -3.743395701e-03
1.445440e+07 8.713321051e-01 -3.824965016e-03 1.286678949e-01 3.824965016e-03 1.286678949e-01 3.824965016e-03 8.713321051e-01 -3.824965016e-03
1.479108e+07 8.716741778e-01 -3.908292895e-03 1.283258222e-01 3.908292895e-03 1.283258222e-01 3.908292895e-03 8.716741778e-01 -3.908292895e-03
1.513561e+07 8.720164885e-01 -3.993416737e-03 1.279835115e-01 3.993416737e-03 1.279835115e-01 3.993416737e-03 8.720164885e-01 -3.993416737e-03
1.548817e+07 8.723590363e-01 -4.080374726e-03 1.276409637e-01 4.080374726e-03 1.276409637e-01 4.080374726e-03 8.723590363e-01 -4.080374726e-03
1.584893e+07 8.727018199e-01 -4.169205840e-03 1.272981801e-01 4.169205840e-03 1.272981801e-01 4.169205840e-03 8.727018199e-01 -4.169205840e-03
1.621810e+07 8.730448382e-01 -4.259949873e-03 1.269551618e-01 4.259949873e-03 1.269551618e-01 4.259949873e-03 8.730448382e-01 -4.259949873e-03
1.659587e+07 8.733880900e-01 -4.352647447e-03 1.266119100e-01 4.352647447e-03 1.266119100e-01 4.352647447e-03 8.733880900e-01 -4.352647447e-03
1.698244e+07 8.737315740e-01 -4.447340031e-03 1.262684260e-01 4.447340031e-03 1.262684260e-01 4.447340031e-03 8.737315740e-01 -4.447340031e-03
1.737801e+07 8.740752888e-01 -4.544069959e-03 1.259247112e-01 4.544069959e-03 1.259247112e-01 4.544069959e-03 8.740752888e-01 -4.544069959e-03
1.778279e+07 8.744192329e-01 -4.642880445e-03 1.255807671e-01 4.642880445e-03 1.255807671e-01 4.642880445e-03 8.744192329e-01 -4.642880445e-03
1.819701e+07 8.747634049e-01 -4.743815603e-03 1.252365951e-01 4.743815603e-03 1.252365951e-01 4.743815603e-03 8.747634049e-01 -4.743815603e-03
1.862087e+07 8.751078032e-01 -4.846920465e-03 1.248921968e-01 4.846920465e-03 1.248921968e-01 4.846920465e-03 8.751078032e-01 -4.846920465e-03
1.905461e+07 8.754524261e-01 -4.952240996e-03 1.245475739e-01 4.952240996e-03 1.245475739e-01 4.952240996e-03 8.754524261e-01 -4.952240996e-03
1.949845e+07 8.757972718e-01 -5.059824120e-03 1.242027282e-01 5.059824120e-03 1.242027282e-01 5.059824120e-03 8.757972718e-01 -5.059824120e-03
1.995262e+07 8.761423385e-01 -5.169717732e-03 1.238576615e-01 5.169717732e-03 1.238576615e-01 5.169717732e-03 8.761423385e-01 -5.169717732e-03
2.041738e+07 8.764876242e-01 -5.281970723e-03 1.235123758e-01 5.281970723e-03 1.235123758e-01 5.281970723e-03 8.764876242e-01 -5.281970723e-03
2.089296e+07 8.768331270e-01 -5.396632997e-03 1.231668730e-01 5.396632997e-03 1.231668730e-01 5.396632997e-03 8.768331270e-01 -5.396632997e-03
2.137962e+07 8.771788446e-01 -5.513755490e-03 1.228211554e-01 5.513755490e-03 1.228211554e-01 5.513755490e-03 8.771788446e-01 -5.513755490e-03
2.187762e+07 8.775247748e-01 -5.633390198e-03 1.224752252e-01 5.633390198e-03 1.224752252e-01 5.633390198e-03 8.775247748e-01 -5.633390198e-03
2.238721e+07 8.778709154e-01 -5.755590188e-03 1.221290846e-01 5.755590188e-03 1.221290846e-01 5.755590188e-03 8.778709154e-01 -5.755590188e-03
2.290868e+07 8.782172637e-01 -5.880409628e-03 1.217827363e-01 5.880409628e-03 1.217827363e-01 5.880409628e-03 8.782172637e-01 -5.880409628e-03
2.344229e+07 8.785638173e-01 -6.007903804e-03 1.214361827e-01 6.007903804e-03 1.214361827e-01 6.007903804e-03 8.785638173e-01 -6.007903804e-03
2.398833e+07 8.789105734e-01 -6.138129146e-03 1.210894266e-01 6.138129146e-03 1.210894266e-01 6.138129146e-03 8.789105734e-01 -6.138129146e-03
2.454709e+07 8.792575293e-01 -6.271143247e-03 1.207424707e-01 6.271143247e-03 1.207424707e-01 6.271143247e-03 8.792575293e-01 -6.271143247e-03
2.511886e+07 8.796046819e-01 -6.407004890e-03 1.203953181e-01 6.407004890e-03 1.203953181e-01 6.407004890e-03 8.796046819e-01 -6.407004890e-03
2.570396e+07 8.799520281e-01 -6.545774070e-03 1.200479719e-01 6.545774070e-03 1.200479719e-01 6.545774070e-03 8.799520281e-01 -6.545774070e-03
2.630268e+07 8.802995647e-01 -6.687512016e-03 1.197004353e-01 6.687512016e-03 1.197004353e-01 6.687512016e-03 8.802995647e-01 -6.687512016e-03
2.691535e+07 8.806472883e-01 -6.832281219e-03 1.193527117e-01 6.832281219e-03 1.193527117e-01 6.832281219e-03 8.806472883e-01 -6.832281219e-03
2.754229e+07 8.809951954e-01 -6.980145458e-03 1.190048046e-01 6.980145458e-03 1.190048046e-01 6.980145458e-03 8.809951954e-01 -6.980145458e-03
2.818383e+07 8.813432821e-01 -7.131169820e-03 1.186567179e-01 7.131169820e-03 1.186567179e-01 7.131169820e-03 8.813432821e-01 -7.131169820e-03
2.884032e+07 8.816915447e-01 -7.285420732e-03 1.183084553e-01 7.285420732e-03 1.183084553e-01 7.285420732e-03 8.816915447e-01 -7.285420732e-03
2.951209e+07 8.820399790e-01 -7.442965982e-03 1.179600210e-01 7.442965982e-03 1.179600210e-01 7.442965982e-03 8.820399790e-01 -7.442965982e-03
3.019952e+07 8.823885807e-01 -7.603874752e-03 1.176114193e-01 7.603874752e-03 1.176114193e-01 7.603874752e-03 8.823885807e-01 -7.603874752e-03
3.090295e+07 8.827373455e-01 -7.768217639e-03 1.172626545e-01 7.768217639e-03 1.172626545e-01 7.768217639e-03 8.827373455e-01 -7.768217639e-03
3.162278e+07 8.830862687e-01 -7.936066691e-03 1.169137313e-01 7.936066691e-03 1.169137313e-01 7.936066691e-03 8.830862687e-01 -7.936066691e-03
3.235937e+07 8.834353454e-01 -8.107495425e-03 1.165646546e-01 8.107495425e-03 1.165646546e-01 8.107495425e-03 8.834353454e-01 -8.107495425e-03
3.311311e+07 8.837845705e-01 -8.282578866e-03 1.162154295e-01 8.282578866e-03 1.162154295e-01 8.282578866e-03 8.837845705e-01 -8.282578866e-03
3.388442e+07 8.841339387e-01 -8.461393571e-03 1.158660613e-01 8.461393571e-03 1.158660613e-01 8.461393571e-03 8.841339387e-01 -8.461393571e-03
3.467369e+07 8.844834445e-01 -8.644017660e-03 1.155165555e-01 8.644017660e-03 1.155165555e-01 8.644017660e-03 8.844834445e-01 -8.644017660e-03
3.548134e+07 8.848330820e-01 -8.830530847e-03 1.151669180e-01 8.830530847e-03 1.151669180e-01 8.830530847e-03 8.848330820e-01 -8.830530847e-03
3.630781e+07 8.851828452e-01 -9.021014472e-03 1.148171548e-01 9.021014472e-03 1.148171548e-01 9.021014472e-03 8.851828452e-01 -9.021014472e-03
3.715352e+07 8.855327278e-01 -9.215551530e-03 1.144672722e-01 9.215551530e-03 1.144672722e-01 9.215551530e-03 8.855327278e-01 -9.215551530e-03
3.801894e+07 8.858827232e-01 -9.414226708e-03 1.141172768e-01 9.414226708e-03 1.141172768e-01 9.414226708e-03 8.858827232e-01 -9.414226708e-03
3.890451e+07 8.862328244e-01 -9.617126412e-03 1.137671756e-01 9.617126412e-03 1.137671756e-01 9.617126412e-03 8.862328244e-01 -9.617126412e-03
3.981072e+07 8.865830243e-01 -9.824338805e-03 1.134169757e-01 9.824338805e-03 1.134169757e-01 9.824338805e-03 8.865830243e-01 -9.824338805e-03
4.073803e+07 8.869333154e-01 -1.003595384e-02 1.130666846e-01 1.003595384e-02 1.130666846e-01 1.003595384e-02 8.869333154e-01 -1.003595384e-02
4.168694e+07 8.872836897e-01 -1.025206329e-02 1.127163103e-01 1.025206329e-02 1.127163103e-01 1.025206329e-02 8.872836897e-01 -1.025206329e-02
4.265795e+07 8.876341391e-01 -1.047276080e-02 1.123658609e-01 1.047276080e-02 1.123658609e-01 1.047276080e-02 8.876341391e-01 -1.047276080e-02
4.365158e+07 8.879846551e-01 -1.069814189e-02 1.120153449e-01 1.069814189e-02 1.120153449e-01 1.069814189e-02 8.879846551e-01 -1.069814189e-02
4.466836e+07 8.883352287e-01 -1.092830402e-02 1.116647713e-01 1.092830402e-02 1.116647713e-01 1.092830402e-02 8.883352287e-01 -1.092830402e-02
4.570882e+07 8.886858506e-01 -1.116334663e-02 1.113141494e-01 1.116334663e-02 1.113141494e-01 1.116334663e-02 8.886858506e-01 -1.116334663e-02
4.677351e+07 8.890365111e-01 -1.140337115e-02 1.109634889e-01 1.140337115e-02 1.109634889e-01 1.140337115e-02 8.890365111e-01 -1.140337115e-02
4.786301e+07 8.893872000e-01 -1.164848107e-02 1.106128000e-01 1.164848107e-02 1.106128000e-01 1.164848107e-02 8.893872000e-01 -1.164848107e-02
4.897788e+07 8.897379068e-01 -1.189878194e-02 1.102620932e-01 1.189878194e-02 1.102620932e-01 1.189878194e-02 8.897379068e-01 -1.189878194e-02
5.011872e+07 8.900886204e-01 -1.215438147e-02 1.099113796e-01 1.215438147e-02 1.099113796e-01 1.215438147e-02 8.900886204e-01 -1.215438147e-02
5.128614e+07 8.904393293e-01 -1.241538949e-02 1.095606707e-01 1.241538949e-02 1.095606707e-01 1.241538949e-02 8.904393293e-01 -1.241538949e-02
5.248075e+07 8.907900216e-01 -1.268191806e-02 1.092099784e-01 1.268191806e-02 1.092099784e-01 1.268191806e-02 8.907900216e-01 -1.268191806e-02
5.370318e+07 8.911406846e-01 -1.295408149e-02 1.088593154e-01 1.295408149e-02 1.088593154e-01 1.295408149e-02 8.911406846e-01 -1.295408149e-02
5.495409e+07 8.914913053e-01 -1.323199637e-02 1.085086947e-01 1.323199637e-02 1.085086947e-01 1.323199637e-02 8.914913053e-01 -1.323199637e-02
5.623413e+07 8.918418701e-01 -1.351578161e-02 1.081581299e-01 1.351578161e-02 1.081581299e-01 1.351578161e-02 8.918418701e-01 -1.351578161e-02
5.754399e+07 8.921923647e-01 -1.380555851e-02 1.078076353e-01 1.380555851e-02 1.078076353e-01 1.380555851e-02 8.921923647e-01 -1.380555851e-02
5.888437e+07 8.925427745e-01 -1.410145080e-02 1.074572255e-01 1.410145080e-02 1.074572255e-01 1.410145080e-02 8.925427745e-01 -1.410145080e-02
6.025596e+07 8.928930838e-01 -1.440358464e-02 1.071069162e-01 1.440358464e-02 1.071069162e-01 1.440358464e-02 8.928930838e-01 -1.440358464e-02
6.165950e+07 8.932432767e-01 -1.471208873e-02 1.067567233e-01 1.471208873e-02 1.067567233e-01 1.471208873e-02 8.932432767e-01 -1.471208873e-02
6.309573e+07 8.935933363e-01 -1.502709431e-02 1.064066637e-01 1.502709431e-02 1.064066637e-01 1.502709431e-02 8.935933363e-01 -1.502709431e-02
6.456542e+07 8.939432451e-01 -1.534873523e-02 1.060567549e-01 1.534873523e-02 1.060567549e-01 1.534873523e-02 8.939432451e-01 -1.534873523e-02
6.606934e+07 8.942929849e-01 -1.567714799e-02 1.057070151e-01 1.567714799e-02 1.057070151e-01 1.567714799e-02 8.942929849e-01 -1.567714799e-02
6.760830e+07 8.946425367e-01 -1.601247178e-02 1.053574633e-01 1.601247178e-02 1.053574633e-01 1.601247178e-02 8.946425367e-01 -1.601247178e-02
6.918310e+07 8.949918806e-01 -1.635484857e-02 1.050081194e-01 1.635484857e-02 1.050081194e-01 1.635484857e-02 8.949918806e-01 -1.635484857e-02
7.079458e+07 8.953409960e-01 -1.670442309e-02 1.046590040e-01 1.670442309e-02 1.046590040e-01 1.670442309e-02 8.953409960e-01 -1.670442309e-02
7.244360e+07 8.956898614e-01 -1.706134294e-02 1.043101386e-01 1.706134294e-02 1.043101386e-01 1.706134294e-02 8.956898614e-01 -1.706134294e-02
7.413102e+07 8.960384542e-01 -1.742575862e-02 1.039615458e-01 1.742575862e-02 1.039615458e-01 1.742575862e-02 8.960384542e-01 -1.742575862e-02
7.585776e+07 8.963867512e-01 -1.779782358e-02 1.036132488e-01 1.779782358e-02 1.036132488e-01 1.779782358e-02 8.963867512e-01 -1.779782358e-02
7.762471e+07 8.967347280e-01 -1.817769427e-02 1.032652720e-01 1.817769427e-02 1.032652720e-01 1.817769427e-02 8.967347280e-01 -1.817769427e-02
7.943282e+07 8.970823591e-01 -1.856553020e-02 1.029176409e-01 1.856553020e-02 1.029176409e-01 1.856553020e-02 8.970823591e-01 -1.856553020e-02
8.128305e+07 8.974296181e-01 -1.896149401e-02 1.025703819e-01 1.896149401e-02 1.025703819e-01 1.896149401e-02 8.974296181e-01 -1.896149401e-02
8.317638e+07 8.977764775e-01 -1.936575148e-02 1.022235225e-01 1.936575148e-02 1.022235225e-01 1.936575148e-02 8.977764775e-01 -1.936575148e-02
8.511380e+07 8.981229085e-01 -1.977847163e-02 1.018770915e-01 1.977847163e-02 1.018770915e-01 1.977847163e-02 8.981229085e-01 -1.977847163e-02
8.709636e+07 8.984688812e-01 -2.019982676e-02 1.015311188e-01 2.019982676e-02 1.015311188e-01 2.019982676e-02 8.984688812e-01 -2.019982676e-02
8.912509e+07 8.988143645e-01 -2.062999250e-02 1.011856355e-01 2.062999250e-02 1.011856355e-01 2.062999250e-02 8.988143645e-01 -2.062999250e-02
9.120108e+07 8.991593259e-01 -2.106914787e-02 1.008406741e-01 2.106914787e-02 1.008406741e-01 2.106914787e-02 8.991593259e-01 -2.106914787e-02
9.332543e+07 8.995037315e-01 -2.151747535e-02 1.004962685e-01 2.151747535e-02 1.004962685e-01 2.151747535e-02 8.995037315e-01 -2.151747535e-02
9.549926e+07 8.998475462e-01 -2.197516093e-02 1.001524538e-01 2.197516093e-02 1.001524538e-01 2.197516093e-02 8.998475462e-01 -2.197516093e-02
9.772372e+07 9.001907333e-01 -2.244239415e-02 9.980926670e-02 2.244239415e-02 9.980926670e-02 2.244239415e-02 9.001907333e-01 -2.244239415e-02
1.000000e+08 9.005332545e-01 -2.291936820e-02 9.946674546e-02 2.291936820e-02 9.946674546e-02 2.291936820e-02 9.005332545e-01 -2.291936820e-02
1.023293e+08 9.008750701e-01 -2.340627996e-02 9.912492986e-02 2.340627996e-02 9.912492986e-02 2.340627996e-02 9.008750701e-01 -2.340627996e-02
1.047129e+08 9.012161387e-01 -2.390333004e-02 9.878386133e-02 2.390333004e-02 9.878386133e-02 2.390333004e-02 9.012161387e-01 -2.390333004e-02
1.071519e+08 9.015564170e-01 -2.441072288e-02 9.844358302e-02 2.441072288e-02 9.844358302e-02 2.441072288e-02 9.015564170e-01 -2.441072288e-02
1.096478e+08 9.018958601e-01 -2.492866678e-02 9.810413987e-02 2.492866678e-02 9.810413987e-02 2.492866678e-02 9.018958601e-01 -2.492866678e-02
1.122018e+08 9.022344213e-01 -2.545737397e-02 9.776557866e-02 2.545737397e-02 9.776557866e-02 2.545737397e-02 9.022344213e-01 -2.545737397e-02
1.148154e+08 9.025720519e-01 -2.599706071e-02 9.742794812e-02 2.599706071e-02 9.742794812e-02 2.599706071e-02 9.025720519e-01 -2.599706071e-02
1.174898e+08 9.029087010e-01 -2.654794729e-02 9.709129895e-02 2.654794729e-02 9.709129895e-02 2.654794729e-02 9.029087010e-01 -2.654794729e-02
1.202264e+08 9.032443160e-01 -2.711025813e-02 9.675568398e-02 2.711025813e-02 9.675568398e-02 2.711025813e-02 9.032443160e-01 -2.711025813e-02
1.230269e+08 9.035788418e-01 -2.768422184e-02 9.642115817e-02 2.768422184e-02 9.642115817e-02 2.768422184e-02 9.035788418e-01 -2.768422184e-02
1.258925e+08 9.039122212e-01 -2.827007128e-02 9.608777876e-02 2.827007128e-02 9.608777876e-02 2.827007128e-02 9.039122212e-01 -2.827007128e-02
1.288250e+08 9.042443947e-01 -2.886804364e-02 9.575560532e-02 2.886804364e-02 9.575560532e-02 2.886804364e-02 9.042443947e-01 -2.886804364e-02
1.318257e+08 9.045753001e-01 -2.947838047e-02 9.542469985e-02 2.947838047e-02 9.542469985e-02 2.947838047e-02 9.045753001e-01 -2.947838047e-02
1.348963e+08 9.049048731e-01 -3.010132777e-02 9.509512692e-02 3.010132777e-02 9.509512692e-02 3.010132777e-02 9.049048731e-01 -3.010132777e-02
1.380384e+08 9.052330463e-01 -3.073713606e-02 9.476695369e-02 3.073713606e-02 9.476695369e-02 3.073713606e-02 9.052330463e-01 -3.073713606e-02
1.412538e+08 9.055597499e-01 -3.138606042e-02 9.444025009e-02 3.138606042e-02 9.444025009e-02 3.138606042e-02 9.055597499e-01 -3.138606042e-02
1.445440e+08 9.058849111e-01 -3.204836057e-02 9.411508888e-02 3.204836057e-02 9.411508888e-02 3.204836057e-02 9.058849111e-01 -3.204836057e-02
1.479108e+08 9.062084542e-01 -3.272430094e-02 9.379154579e-02 3.272430094e-02 9.379154579e-02 3.272430094e-02 9.062084542e-01 -3.272430094e-02
1.513561e+08 9.065303004e-01 -3.341415070e-02 9.346969961e-02 3.341415070e-02 9.346969961e-02 3.341415070e-02 9.065303004e-01 -3.341415070e-02
1.548817e+08 9.068503676e-01 -3.411818389e-02 9.314963235e-02 3.411818389e-02 9.314963235e-02 3.411818389e-02 9.068503676e-01 -3.411818389e-02
1.584893e+08 9.071685707e-01 -3.483667940e-02 9.283142932e-02 3.483667940e-02 9.283142932e-02 3.483667940e-02 9.071685707e-01 -3.483667940e-02
1.621810e+08 9.074848207e-01 -3.556992109e-02 9.251517928e-02 3.556992109e-02 9.251517928e-02 3.556992109e-02 9.074848207e-01 -3.556992109e-02
1.659587e+08 9.077990254e-01 -3.631819783e-02 9.220097459e-02 3.631819783e-02 9.220097459e-02 3.631819783e-02 9.077990254e-01 -3.631819783e-02
1.698244e+08 9.081110887e-01 -3.708180358e-02 9.188891134e-02 3.708180358e-02 9.188891134e-02 3.708180358e-02 9.081110887e-01 -3.708180358e-02
1.737801e+08 9.084209105e-01 -3.786103742e-02 9.157908946e-02 3.786103742e-02 9.157908946e-02 3.786103742e-02 9.084209105e-01 -3.786103742e-02
1.778279e+08 9.087283871e-01 -3.865620364e-02 9.127161293e-02 3.865620364e-02 9.127161293e-02 3.865620364e-02 9.087283871e-01 -3.865620364e-02
1.819701e+08 9.090334101e-01 -3.946761174e-02 9.096658989e-02 3.946761174e-02 9.096658989e-02 3.946761174e-02 9.090334101e-01 -3.946761174e-02
1.862087e+08 9.093358672e-01 -4.029557659e-02 9.066413282e-02 4.029557659e-02 9.066413282e-02 4.029557659e-02 9.093358672e-01 -4.029557659e-02
1.905461e+08 9.096356413e-01 -4.114041838e-02 9.036435873e-02 4.114041838e-02 9.036435873e-02 4.114041838e-02 9.096356413e-01 -4.114041838e-02
1.949845e+08 9.099326107e-01 -4.200246272e-02 9.006738925e-02 4.200246272e-02 9.006738925e-02 4.200246272e-02 9.099326107e-01 -4.200246272e-02
1.995262e+08 9.102266491e-01 -4.288204070e-02 8.977335094e-02 4.288204070e-02 8.977335094e-02 4.288204070e-02 9.102266491e-01 -4.288204070e-02
2.041738e+08 9.105176247e-01 -4.377948891e-02 8.948237533e-02 4.377948891e-02 8.948237533e-02 4.377948891e-02 9.105176247e-01 -4.377948891e-02
2.089296e+08 9.108054008e-01 -4.469514953e-02 8.919459925e-02 4.469514953e-02 8.919459925e-02 4.469514953e-02 9.108054008e-01 -4.469514953e-02
2.137962e+08 9.110898351e-01 -4.562937032e-02 8.891016492e-02 4.562937032e-02 8.891016492e-02 4.562937032e-02 9.110898351e-01 -4.562937032e-02
2.187762e+08 9.113707798e-01 -4.658250470e-02 8.862922021e-02 4.658250470e-02 8.862922021e-02 4.658250470e-02 9.113707798e-01 -4.658250470e-02
2.238721e+08 9.116480811e-01 -4.755491178e-02 8.835191887e-02 4.755491178e-02 8.835191887e-02 4.755491178e-02 9.116480811e-01 -4.755491178e-02
2.290868e+08 9.119215793e-01 -4.854695639e-02 8.807842068e-02 4.854695639e-02 8.807842068e-02 4.854695639e-02 9.119215793e-01 -4.854695639e-02
2.344229e+08 9.121911082e-01 -4.955900911e-02 8.780889178e-02 4.955900911e-02 8.780889178e-02 4.955900911e-02 9.121911082e-01 -4.955900911e-02
2.398833e+08 9.124564952e-01 -5.059144632e-02 8.754350480e-02 5.059144632e-02 8.754350480e-02 5.059144632e-02 9.124564952e-01 -5.059144632e-02
2.454709e+08 9.127175608e-01 -5.164465020e-02 8.728243917e-02 5.164465020e-02 8.728243917e-02 5.164465020e-02 9.127175608e-01 -5.164465020e-02
2.511886e+08 9.129741186e-01 -5.271900875e-02 8.702588138e-02 5.271900875e-02 8.702588138e-02 5.271900875e-02 9.129741186e-01 -5.271900875e-02
2.570396e+08 9.132259748e-01 -5.381491583e-02 8.677402518e-02 5.381491583e-02 8.677402518e-02 5.381491583e-02 9.132259748e-01 -5.381491583e-02
2.630268e+08 9.134729281e-01 -5.493277114e-02 8.652707193e-02 5.493277114e-02 8.652707193e-02 5.493277114e-02 9.134729281e-01 -5.493277114e-02
2.691535e+08 9.137147692e-01 -5.607298024e-02 8.628523079e-02 5.607298024e-02 8.628523079e-02 5.607298024e-02 9.137147692e-01 -5.607298024e-02
2.754229e+08 9.139512809e-01 -5.723595455e-02 8.604871910e-02 5.723595455e-02 8.604871910e-02 5.723595455e-02 9.139512809e-01 -5.723595455e-02
2.818383e+08 9.141822374e-01 -5.842211135e-02 8.581776261e-02 5.842211135e-02 8.581776261e-02 5.842211135e-02 9.141822374e-01 -5.842211135e-02
2.884032e+08 9.144074042e-01 -5.963187373e-02 8.559259581e-02 5.963187373e-02 8.559259581e-02 5.963187373e-02 9.144074042e-01 -5.963187373e-02
2.951209e+08 9.146265377e-01 -6.086567062e-02 8.537346225e-02 6.086567062e-02 8.537346225e-02 6.086567062e-02 9.146265377e-01 -6.086567062e-02
3.019952e+08 9.148393851e-01 -6.212393672e-02 8.516061486e-02 6.212393672e-02 8.516061486e-02 6.212393672e-02 9.148393851e-01 -6.212393672e-02
3.090295e+08 9.150456837e-01 -6.340711247e-02 8.495431630e-02 6.340711247e-02 8.495431630e-02 6.340711247e-02 9.150456837e-01 -6.340711247e-02
3.162278e+08 9.152451607e-01 -6.471564404e-02 8.475483928e-02 6.471564404e-02 8.475483928e-02 6.471564404e-02 9.152451607e-01 -6.471564404e-02
3.235937e+08 9.154375331e-01 -6.604998321e-02 8.456246695e-02 6.604998321e-02 8.456246695e-02 6.604998321e-02 9.154375331e-01 -6.604998321e-02
3.311311e+08 9.156225068e-01 -6.741058737e-02 8.437749324e-02 6.741058737e-02 8.437749324e-02 6.741058737e-02 9.156225068e-01 -6.741058737e-02
3.388442e+08 9.157997767e-01 -6.879791938e-02 8.420022327e-02 6.879791938e-02 8.420022327e-02 6.879791938e-02 9.157997767e-01 -6.879791938e-02
3.467369e+08 9.159690263e-01 -7.021244755e-02 8.403097370e-02 7.021244755e-02 8.403097370e-02 7.021244755e-02 9.159690263e-01 -7.021244755e-02
3.548134e+08 9.161299268e-01 -7.165464550e-02 8.387007319e-02 7.165464550e-02 8.387007319e-02 7.165464550e-02 9.161299268e-01 -7.165464550e-02
3.630781e+08 9.162821372e-01 -7.312499203e-02 8.371786276e-02 7.312499203e-02 8.371786276e-02 7.312499203e-02 9.162821372e-01 -7.312499203e-02
3.715352e+08 9.164253038e-01 -7.462397104e-02 8.357469621e-02 7.462397104e-02 8.357469621e-02 7.462397104e-02 9.164253038e-01 -7.462397104e-02
3.801894e+08 9.165590594e-01 -7.615207138e-02 8.344094063e-02 7.615207138e-02 8.344094063e-02 7.615207138e-02 9.165590594e-01 -7.615207138e-02
3.890451e+08 9.166830232e-01 -7.770978666e-02 8.331697676e-02 7.770978666e-02 8.331697676e-02 7.770978666e-02 9.166830232e-01 -7.770978666e-02
3.981072e+08 9.167968005e-01 -7.929761511e-02 8.320319949e-02 7.929761511e-02 8.320319949e-02 7.929761511e-02 9.167968005e-01 -7.929761511e-02
4.073803e+08 9.168999816e-01 -8.091605941e-02 8.310001836e-02 8.091605941e-02 8.310001836e-02 8.091605941e-02 9.168999816e-01 -8.091605941e-02
4.168694e+08 9.169921420e-01 -8.256562643e-02 8.300785798e-02 8.256562643e-02 8.300785798e-02 8.256562643e-02 9.169921420e-01 -8.256562643e-02
4.265795e+08 9.170728414e-01 -8.424682704e-02 8.292715858e-02 8.424682704e-02 8.292715858e-02 8.424682704e-02 9.170728414e-01 -8.424682704e-02
4.365158e+08 9.171416235e-01 -8.596017588e-02 8.285837648e-02 8.596017588e-02 8.285837648e-02 8.596017588e-02 9.171416235e-01 -8.596017588e-02
4.466836e+08 9.171980154e-01 -8.770619105e-02 8.280198462e-02 8.770619105e-02 8.280198462e-02 8.770619105e-02 9.171980154e-01 -8.770619105e-02
4.570882e+08 9.172415269e-01 -8.948539386e-02 8.275847312e-02 8.948539386e-02 8.275847312e-02 8.948539386e-02 9.172415269e-01 -8.948539386e-02
4.677351e+08 9.172716502e-01 -9.129830852e-02 8.272834975e-02 9.129830852e-02 8.272834975e-02 9.129830852e-02 9.172716502e-01 -9.129830852e-02
4.786301e+08 9.172878594e-01 -9.314546177e-02 8.271214058e-02 9.314546177e-02 8.271214058e-02 9.314546177e-02 9.172878594e-01 -9.314546177e-02
4.897788e+08 9.172896096e-01 -9.502738254e-02 8.271039044e-02 9.502738254e-02 8.271039044e-02 9.502738254e-02 9.172896096e-01 -9.502738254e-02
5.011872e+08 9.172763364e-01 -9.694460157e-02 8.272366357e-02 9.694460157e-02 8.272366357e-02 9.694460157e-02 9.172763364e-01 -9.694460157e-02
5.128614e+08 9.172474558e-01 -9.889765097e-02 8.275254416e-02 9.889765097e-02 8.275254416e-02 9.889765097e-02 9.172474558e-01 -9.889765097e-02
5.248075e+08 9.172023630e-01 -1.008870638e-01 8.279763697e-02 1.008870638e-01 8.279763697e-02 1.008870638e-01 9.172023630e-01 -1.008870638e-01
5.370318e+08 9.171404321e-01 -1.029133736e-01 8.285956792e-02 1.029133736e-01 8.285956792e-02 1.029133736e-01 9.171404321e-01 -1.029133736e-01
5.495409e+08 9.170610153e-01 -1.049771137e-01 8.293898469e-02 1.049771137e-01 8.293898469e-02 1.049771137e-01 9.170610153e-01 -1.049771137e-01
5.623413e+08 9.169634426e-01 -1.070788171e-01 8.303655736e-02 1.070788171e-01 8.303655736e-02 1.070788171e-01 9.169634426e-01 -1.070788171e-01
5.754399e+08 9.168470210e-01 -1.092190154e-01 8.315297901e-02 1.092190154e-01 8.315297901e-02 1.092190154e-01 9.168470210e-01 -1.092190154e-01
5.888437e+08 9.167110336e-01 -1.113982385e-01 8.328896637e-02 1.113982385e-01 8.328896637e-02 1.113982385e-01 9.167110336e-01 -1.113982385e-01
6.025596e+08 9.165547396e-01 -1.136170138e-01 8.344526045e-02 1.136170138e-01 8.344526045e-02 1.136170138e-01 9.165547396e-01 -1.136170138e-01
6.165950e+08 9.163773728e-01 -1.158758655e-01 8.362262718e-02 1.158758655e-01 8.362262718e-02 1.158758655e-01 9.163773728e-01 -1.158758655e-01
6.309573e+08 9.161781419e-01 -1.181753139e-01 8.382185806e-02 1.181753139e-01 8.382185806e-02 1.181753139e-01 9.161781419e-01 -1.181753139e-01
6.456542e+08 9.159562292e-01 -1.205158747e-01 8.404377077e-02 1.205158747e-01 8.404377077e-02 1.205158747e-01 9.159562292e-01 -1.205158747e-01
6.606934e+08 9.157107901e-01 -1.228980581e-01 8.428920988e-02 1.228980581e-01 8.428920988e-02 1.228980581e-01 9.157107901e-01 -1.228980581e-01
6.760830e+08 9.154409526e-01 -1.253223676e-01 8.455904742e-02 1.253223676e-01 8.455904742e-02 1.253223676e-01 9.154409526e-01 -1.253223676e-01
6.918310e+08 9.151458164e-01 -1.277892997e-01 8.485418356e-02 1.277892997e-01 8.485418356e-02 1.277892997e-01 9.151458164e-01 -1.277892997e-01
7.079458e+08 9.148244528e-01 -1.302993423e-01 8.517554723e-02 1.302993423e-01 8.517554723e-02 1.302993423e-01 9.148244528e-01 -1.302993423e-01
7.244360e+08 9.144759032e-01 -1.328529742e-01 8.552409677e-02 1.328529742e-01 8.552409677e-02 1.328529742e-01 9.144759032e-01 -1.328529742e-01
7.413102e+08 9.140991795e-01 -1.354506635e-01 8.590082050e-02 1.354506635e-01 8.590082050e-02 1.354506635e-01 9.140991795e-01 -1.354506635e-01
7.585776e+08 9.136932626e-01 -1.380928668e-01 8.630673738e-02 1.380928668e-01 8.630673738e-02 1.380928668e-01 9.136932626e-01 -1.380928668e-01
7.762471e+08 9.132571025e-01 -1.407800279e-01 8.674289754e-02 1.407800279e-01 8.674289754e-02 1.407800279e-01 9.132571025e-01 -1.407800279e-01
7.943282e+08 9.127896171e-01 -1.435125764e-01 8.721038290e-02 1.435125764e-01 8.721038290e-02 1.435125764e-01 9.127896171e-01 -1.435125764e-01
8.128305e+08 9.122896923e-01 -1.462909266e-01 8.771030770e-02 1.462909266e-01 8.771030770e-02 1.462909266e-01 9.122896923e-01 -1.462909266e-01
8.317638e+08 9.117561810e-01 -1.491154758e-01 8.824381903e-02 1.491154758e-01 8.824381903e-02 1.491154758e-01 9.117561810e-01 -1.491154758e-01
8.511380e+08 9.111879027e-01 -1.519866031e-01 8.881209734e-02 1.519866031e-01 8.881209734e-02 1.519866031e-01 9.111879027e-01 -1.519866031e-01
8.709636e+08 9.105836431e-01 -1.549046678e-01 8.941635688e-02 1.549046678e-01 8.941635688e-02 1.549046678e-01 9.105836431e-01 -1.549046678e-01
8.912509e+08 9.099421538e-01 -1.578700077e-01 9.005784617e-02 1.578700077e-01 9.005784617e-02 1.578700077e-01 9.099421538e-01 -1.578700077e-01
9.120108e+08 9.082367200e-01 -1.613434430e-01 9.176328004e-02 1.613434430e-01 9.176328004e-02 1.613434430e-01 9.082367200e-01 -1.613434430e-01
9.332543e+08 9.057142710e-01 -1.652256250e-01 9.428572898e-02 1.652256250e-01 9.428572898e-02 1.652256250e-01 9.057142710e-01 -1.652256250e-01
9.549926e+08 9.031217480e-01 -1.691833538e-01 9.687825202e-02 1.691833538e-01 9.687825202e-02 1.691833538e-01 9.031217480e-01 -1.691833538e-01
9.772372e+08 9.004559456e-01 -1.732168868e-01 9.954405445e-02 1.732168868e-01 9.954405445e-02 1.732168868e-01 9.004559456e-01 -1.732168868e-01
1.000000e+09 8.977135501e-01 -1.773263788e-01 1.022864499e-01 1.773263788e-01 1.022864499e-01 1.773263788e-01 8.977135501e-01 -1.773263788e-01
1.023293e+09 8.948911393e-01 -1.815118728e-01 1.051088607e-01 1.815118728e-01 1.051088607e-01 1.815118728e-01 8.948911393e-01 -1.815118728e-01
1.047129e+09 8.919851823e-01 -1.857732909e-01 1.080148177e-01 1.857732909e-01 1.080148177e-01 1.857732909e-01 8.919851823e-01 -1.857732909e-01
1.071519e+09 8.889920404e-01 -1.901104247e-01 1.110079596e-01 1.901104247e-01 1.110079596e-01 1.901104247e-01 8.889920404e-01 -1.901104247e-01
1.096478e+09 8.859079679e-01 -1.945229251e-01 1.140920321e-01 1.945229251e-01 1.140920321e-01 1.945229251e-01 8.859079679e-01 -1.945229251e-01
1.122018e+09 8.827291144e-01 -1.990102915e-01 1.172708856e-01 1.990102915e-01 1.172708856e-01 1.990102915e-01 8.827291144e-01 -1.990102915e-01
1.148154e+09 8.794515263e-01 -2.035718611e-01 1.205484737e-01 2.035718611e-01 1.205484737e-01 2.035718611e-01 8.794515263e-01 -2.035718611e-01
1.174898e+09 8.760711507e-01 -2.082067976e-01 1.239288493e-01 2.082067976e-01 1.239288493e-01 2.082067976e-01 8.760711507e-01 -2.082067976e-01
1.202264e+09 8.725838388e-01 -2.129140789e-01 1.274161612e-01 2.129140789e-01 1.274161612e-01 2.129140789e-01 8.725838388e-01 -2.129140789e-01
1.230269e+09 8.689853506e-01 -2.176924857e-01 1.310146494e-01 2.176924857e-01 1.310146494e-01 2.176924857e-01 8.689853506e-01 -2.176924857e-01
1.258925e+09 8.652713605e-01 -2.225405885e-01 1.347286395e-01 2.225405885e-01 1.347286395e-01 2.225405885e-01 8.652713605e-01 -2.225405885e-01
1.288250e+09 8.614374642e-01 -2.274567352e-01 1.385625358e-01 2.274567352e-01 1.385625358e-01 2.274567352e-01 8.614374642e-01 -2.274567352e-01
1.318257e+09 8.574791857e-01 -2.324390383e-01 1.425208143e-01 2.324390383e-01 1.425208143e-01 2.324390383e-01 8.574791857e-01 -2.324390383e-01
1.348963e+09 8.533919868e-01 -2.374853615e-01 1.466080132e-01 2.374853615e-01 1.466080132e-01 2.374853615e-01 8.533919868e-01 -2.374853615e-01
1.380384e+09 8.491712764e-01 -2.425933069e-01 1.508287236e-01 2.425933069e-01 1.508287236e-01 2.425933069e-01 8.491712764e-01 -2.425933069e-01
1.412538e+09 8.448124221e-01 -2.477602021e-01 1.551875779e-01 2.477602021e-01 1.551875779e-01 2.477602021e-01 8.448124221e-01 -2.477602021e-01
1.445440e+09 8.403107628e-01 -2.529830864e-01 1.596892372e-01 2.529830864e-01 1.596892372e-01 2.529830864e-01 8.403107628e-01 -2.529830864e-01
1.479108e+09 8.356616224e-01 -2.582586989e-01 1.643383776e-01 2.582586989e-01 1.643383776e-01 2.582586989e-01 8.356616224e-01 -2.582586989e-01
1.513561e+09 8.308603256e-01 -2.635834656e-01 1.691396744e-01 2.635834656e-01 1.691396744e-01 2.635834656e-01 8.308603256e-01 -2.635834656e-01
1.548817e+09 8.259022147e-01 -2.689534874e-01 1.740977853e-01 2.689534874e-01 1.740977853e-01 2.689534874e-01 8.259022147e-01 -2.689534874e-01
1.584893e+09 8.207826680e-01 -2.743645288e-01 1.792173320e-01 2.743645288e-01 1.792173320e-01 2.743645288e-01 8.207826680e-01 -2.743645288e-01
1.621810e+09 8.154971201e-01 -2.798120071e-01 1.845028799e-01 2.798120071e-01 1.845028799e-01 2.798120071e-01 8.154971201e-01 -2.798120071e-01
1.659587e+09 8.100410837e-01 -2.852909829e-01 1.899589163e-01 2.852909829e-01 1.899589163e-01 2.852909829e-01 8.100410837e-01 -2.852909829e-01
1.698244e+09 8.044101729e-01 -2.907961512e-01 1.955898271e-01 2.907961512e-01 1.955898271e-01 2.907961512e-01 8.044101729e-01 -2.907961512e-01
1.737801e+09 7.986001281e-01 -2.963218343e-01 2.013998719e-01 2.963218343e-01 2.013998719e-01 2.963218343e-01 7.986001281e-01 -2.963218343e-01
1.778279e+09 7.926068428e-01 -3.018619760e-01 2.073931572e-01 3.018619760e-01 2.073931572e-01 3.018619760e-01 7.926068428e-01 -3.018619760e-01
1.819701e+09 7.864263915e-01 -3.074101370e-01 2.135736085e-01 3.074101370e-01 2.135736085e-01 3.074101370e-01 7.864263915e-01 -3.074101370e-01
1.862087e+09 7.800550596e-01 -3.129594933e-01 2.199449404e-01 3.129594933e-01 2.199449404e-01 3.129594933e-01 7.800550596e-01 -3.129594933e-01
1.905461e+09 7.733838879e-01 -3.184026259e-01 2.266161121e-01 3.184026259e-01 2.266161121e-01 3.184026259e-01 7.733838879e-01 -3.184026259e-01
1.949845e+09 7.658006200e-01 -3.231220815e-01 2.341993800e-01 3.231220815e-01 2.341993800e-01 3.231220815e-01 7.658006200e-01 -3.231220815e-01
1.995262e+09 7.580643750e-01 -3.278098133e-01 2.419356250e-01 3.278098133e-01 2.419356250e-01 3.278098133e-01 7.580643750e-01 -3.278098133e-01
2.041738e+09 7.501735415e-01 -3.324590234e-01 2.498264585e-01 3.324590234e-01 2.498264585e-01 3.324590234e-01 7.501735415e-01 -3.324590234e-01
2.089296e+09 7.421268095e-01 -3.370626629e-01 2.578731905e-01 3.370626629e-01 2.578731905e-01 3.370626629e-01 7.421268095e-01 -3.370626629e-01
2.137962e+09 7.339231940e-01 -3.416134437e-01 2.660768060e-01 3.416134437e-01 2.660768060e-01 3.416134437e-01 7.339231940e-01 -3.416134437e-01
2.187762e+09 7.255620606e-01 -3.461038519e-01 2.744379394e-01 3.461038519e-01 2.744379394e-01 3.461038519e-01 7.255620606e-01 -3.461038519e-01
2.238721e+09 7.173018161e-01 -3.460601493e-01 2.826981839e-01 3.460601493e-01 2.826981839e-01 3.460601493e-01 7.173018161e-01 -3.460601493e-01
2.290868e+09 7.092088257e-01 -3.446031022e-01 2.907911743e-01 3.446031022e-01 2.907911743e-01 3.446031022e-01 7.092088257e-01 -3.446031022e-01
2.344229e+09 7.012313497e-01 -3.431712171e-01 2.987686503e-01 3.431712171e-01 2.987686503e-01 3.431712171e-01 7.012313497e-01 -3.431712171e-01
2.398833e+09 6.933668356e-01 -3.417631863e-01 3.066331644e-01 3.417631863e-01 3.066331644e-01 3.417631863e-01 6.933668356e-01 -3.417631863e-01
2.454709e+09 6.856128335e-01 -3.403777485e-01 3.143871665e-01 3.403777485e-01 3.143871665e-01 3.403777485e-01 6.856128335e-01 -3.403777485e-01
2.511886e+09 6.779669931e-01 -3.390136871e-01 3.220330069e-01 3.390136871e-01 3.220330069e-01 3.390136871e-01 6.779669931e-01 -3.390136871e-01
2.570396e+09 6.704270600e-01 -3.376698286e-01 3.295729400e-01 3.376698286e-01 3.295729400e-01 3.376698286e-01 6.704270600e-01 -3.376698286e-01
2.630268e+09 6.629908720e-01 -3.363450411e-01 3.370091280e-01 3.363450411e-01 3.370091280e-01 3.363450411e-01 6.629908720e-01 -3.363450411e-01
2.691535e+09 6.556563564e-01 -3.350382330e-01 3.443436436e-01 3.350382330e-01 3.443436436e-01 3.350382330e-01 6.556563564e-01 -3.350382330e-01
2.754229e+09 6.484215262e-01 -3.337483515e-01 3.515784738e-01 3.337483515e-01 3.515784738e-01 3.337483515e-01 6.484215262e-01 -3.337483515e-01
2.818383e+09 6.412844781e-01 -3.324743817e-01 3.587155219e-01 3.324743817e-01 3.587155219e-01 3.324743817e-01 6.412844781e-01 -3.324743817e-01
2.884032e+09 6.342433890e-01 -3.312153447e-01 3.657566110e-01 3.312153447e-01 3.657566110e-01 3.312153447e-01 6.342433890e-01 -3.312153447e-01
2.951209e+09 6.272965133e-01 -3.299702976e-01 3.727034867e-01 3.299702976e-01 3.727034867e-01 3.299702976e-01 6.272965133e-01 -3.299702976e-01
3.019952e+09 6.204421806e-01 -3.287383316e-01 3.795578194e-01 3.287383316e-01 3.795578194e-01 3.287383316e-01 6.204421806e-01 -3.287383316e-01
3.090295e+09 6.136787933e-01 -3.275185713e-01 3.863212067e-01 3.275185713e-01 3.863212067e-01 3.275185713e-01 6.136787933e-01 -3.275185713e-01
3.162278e+09 6.070048239e-01 -3.263101739e-01 3.929951761e-01 3.263101739e-01 3.929951761e-01 3.263101739e-01 6.070048239e-01 -3.263101739e-01
3.235937e+09 6.004188127e-01 -3.251123283e-01 3.995811873e-01 3.251123283e-01 3.995811873e-01 3.251123283e-01 6.004188127e-01 -3.251123283e-01
3.311311e+09 5.939193662e-01 -3.239242542e-01 4.060806338e-01 3.239242542e-01 4.060806338e-01 3.239242542e-01 5.939193662e-01 -3.239242542e-01
3.388442e+09 5.875051543e-01 -3.227452015e-01 4.124948457e-01 3.227452015e-01 4.124948457e-01 3.227452015e-01 5.875051543e-01 -3.227452015e-01
3.467369e+09 5.811749086e-01 -3.215744492e-01 4.188250914e-01 3.215744492e-01 4.188250914e-01 3.215744492e-01 5.811749086e-01 -3.215744492e-01
3.548134e+09 5.749274205e-01 -3.204113054e-01 4.250725795e-01 3.204113054e-01 4.250725795e-01 3.204113054e-01 5.749274205e-01 -3.204113054e-01
3.630781e+09 5.705361301e-01 -3.148290466e-01 4.294638699e-01 3.148290466e-01 4.294638699e-01 3.148290466e-01 5.705361301e-01 -3.148290466e-01
3.715352e+09 5.691706226e-01 -3.017796780e-01 4.308293774e-01 3.017796780e-01 4.308293774e-01 3.017796780e-01 5.691706226e-01 -3.017796780e-01
3.801894e+09 5.677658817e-01 -2.888233836e-01 4.322341183e-01 2.888233836e-01 4.322341183e-01 2.888233836e-01 5.677658817e-01 -2.888233836e-01
3.890451e+09 5.663162094e-01 -2.759397013e-01 4.336837906e-01 2.759397013e-01 4.336837906e-01 2.759397013e-01 5.663162094e-01 -2.759397013e-01
3.981072e+09 5.648141496e-01 -2.631089997e-01 4.351858504e-01 2.631089997e-01 4.351858504e-01 2.631089997e-01 5.648141496e-01 -2.631089997e-01
4.073803e+09 5.632504799e-01 -2.503125562e-01 4.367495201e-01 2.503125562e-01 4.367495201e-01 2.503125562e-01 5.632504799e-01 -2.503125562e-01
4.168694e+09 5.616142007e-01 -2.375326521e-01 4.383857993e-01 2.375326521e-01 4.383857993e-01 2.375326521e-01 5.616142007e-01 -2.375326521e-01
4.265795e+09 5.598925244e-01 -2.247526855e-01 4.401074756e-01 2.247526855e-01 4.401074756e-01 2.247526855e-01 5.598925244e-01 -2.247526855e-01
4.365158e+09 5.580708681e-01 -2.119573042e-01 4.419291319e-01 2.119573042e-01 4.419291319e-01 2.119573042e-01 5.580708681e-01 -2.119573042e-01
4.466836e+09 5.561328539e-01 -1.991325581e-01 4.438671461e-01 1.991325581e-01 4.438671461e-01 1.991325581e-01 5.561328539e-01 -1.991325581e-01
4.570882e+09 5.540603200e-01 -1.862660741e-01 4.459396800e-01 1.862660741e-01 4.459396800e-01 1.862660741e-01 5.540603200e-01 -1.862660741e-01
4.677351e+09 5.518333484e-01 -1.733472514e-01 4.481666516e-01 1.733472514e-01 4.481666516e-01 1.733472514e-01 5.518333484e-01 -1.733472514e-01
4.786301e+09 5.494303141e-01 -1.603674790e-01 4.505696859e-01 1.603674790e-01 4.505696859e-01 1.603674790e-01 5.494303141e-01 -1.603674790e-01
4.897788e+09 5.468279610e-01 -1.473203722e-01 4.531720390e-01 1.473203722e-01 4.531720390e-01 1.473203722e-01 5.468279610e-01 -1.473203722e-01
5.011872e+09 5.440015111e-01 -1.342020265e-01 4.559984889e-01 1.342020265e-01 4.559984889e-01 1.342020265e-01 5.440015111e-01 -1.342020265e-01
5.128614e+09 5.409248133e-01 -1.210112864e-01 4.590751867e-01 1.210112864e-01 4.590751867e-01 1.210112864e-01 5.409248133e-01 -1.210112864e-01
5.248075e+09 5.375705382e-01 -1.077500216e-01 4.624294618e-01 1.077500216e-01 4.624294618e-01 1.077500216e-01 5.375705382e-01 -1.077500216e-01
5.370318e+09 5.339104238e-01 -9.442340614e-02 4.660895762e-01 9.442340614e-02 4.660895762e-01 9.442340614e-02 5.339104238e-01 -9.442340614e-02
5.495409e+09 5.299155798e-01 -8.104019117e-02 4.700844202e-01 8.104019117e-02 4.700844202e-01 8.104019117e-02 5.299155798e-01 -8.104019117e-02
5.623413e+09 5.255568526e-01 -6.761296047e-02 4.744431474e-01 6.761296047e-02 4.744431474e-01 6.761296047e-02 5.255568526e-01 -6.761296047e-02
5.754399e+09 5.208052561e-01 -5.415835730e-02 4.791947439e-01 5.415835730e-02 4.791947439e-01 5.415835730e-02 5.208052561e-01 -5.415835730e-02
5.888437e+09 4.801269897e-01 -7.406505796e-02 5.198730103e-01 7.406505796e-02 5.198730103e-01 7.406505796e-02 4.801269897e-01 -7.406505796e-02
6.025596e+09 4.260142348e-01 -9.989533007e-02 5.739857652e-01 9.989533007e-02 5.739857652e-01 9.989533007e-02 4.260142348e-01 -9.989533007e-02
6.165950e+09 3.785292768e-01 -1.158269875e-01 6.214707232e-01 1.158269875e-01 6.214707232e-01 1.158269875e-01 3.785292768e-01 -1.158269875e-01
6.309573e+09 3.373113071e-01 -1.250797425e-01 6.626886929e-01 1.250797425e-01 6.626886929e-01 1.250797425e-01 3.373113071e-01 -1.250797425e-01
6.456542e+09 3.016512608e-01 -1.298433107e-01 6.983487392e-01 1.298433107e-01 6.983487392e-01 1.298433107e-01 3.016512608e-01 -1.298433107e-01
6.606934e+09 2.707746270e-01 -1.315930781e-01 7.292253730e-01 1.315930781e-01 7.292253730e-01 1.315930781e-01 2.707746270e-01 -1.315930781e-01
6.760830e+09 2.439589111e-01 -1.313229572e-01 7.560410889e-01 1.313229572e-01 7.560410889e-01 1.313229572e-01 2.439589111e-01 -1.313229572e-01
6.918310e+09 2.205733272e-01 -1.297054035e-01 7.794266728e-01 1.297054035e-01 7.794266728e-01 1.297054035e-01 2.205733272e-01 -1.297054035e-01
7.079458e+09 2.000842242e-01 -1.271982142e-01 7.999157758e-01 1.271982142e-01 7.999157758e-01 1.271982142e-01 2.000842242e-01 -1.271982142e-01
7.244360e+09 1.820468720e-01 -1.241151070e-01 8.179531280e-01 1.241151070e-01 8.179531280e-01 1.241151070e-01 1.820468720e-01 -1.241151070e-01
7.413102e+09 1.660929843e-01 -1.206723572e-01 8.339070157e-01 1.206723572e-01 8.339070157e-01 1.206723572e-01 1.660929843e-01 -1.206723572e-01
7.585776e+09 1.519180078e-01 -1.170197724e-01 8.480819922e-01 1.170197724e-01 8.480819922e-01 1.170197724e-01 1.519180078e-01 -1.170197724e-01
7.762471e+09 1.392697185e-01 -1.132614234e-01 8.607302815e-01 1.132614234e-01 8.607302815e-01 1.132614234e-01 1.392697185e-01 -1.132614234e-01
7.943282e+09 1.279385608e-01 -1.094696449e-01 8.720614392e-01 1.094696449e-01 8.720614392e-01 1.094696449e-01 1.279385608e-01 -1.094696449e-01
8.128305e+09 1.229657373e-01 -1.085273352e-01 8.770342627e-01 1.085273352e-01 8.770342627e-01 1.085273352e-01 1.229657373e-01 -1.085273352e-01
8.317638e+09 1.204794958e-01 -1.088098378e-01 8.795205042e-01 1.088098378e-01 8.795205042e-01 1.088098378e-01 1.204794958e-01 -1.088098378e-01
8.511380e+09 1.179816048e-01 -1.090358518e-01 8.820183952e-01 1.090358518e-01 8.820183952e-01 1.090358518e-01 1.179816048e-01 -1.090358518e-01
8.709636e+09 1.154746473e-01 -1.092047844e-01 8.845253527e-01 1.092047844e-01 8.845253527e-01 1.092047844e-01 1.154746473e-01 -1.092047844e-01
8.912509e+09 1.129612441e-01 -1.093161904e-01 8.870387559e-01 1.093161904e-01 8.870387559e-01 1.093161904e-01 1.129612441e-01 -1.093161904e-01
9.120108e+09 1.104440436e-01 -1.093697754e-01 8.895559564e-01 1.093697754e-01 8.895559564e-01 1.093697754e-01 1.104440436e-01 -1.093697754e-01
9.332543e+09 1.079257101e-01 -1.093653976e-01 8.920742899e-01 1.093653976e-01 8.920742899e-01 1.093653976e-01 1.079257101e-01 -1.093653976e-01
9.549926e+09 1.054089125e-01 -1.093030685e-01 8.945910875e-01 1.093030685e-01 8.945910875e-01 1.093030685e-01 1.054089125e-01 -1.093030685e-01
9.772372e+09 1.028963135e-01 -1.091829531e-01 8.971036865e-01 1.091829531e-01 8.971036865e-01 1.091829531e-01 1.028963135e-01 -1.091829531e-01
1.000000e+10 1.003905578e-01 -1.090053688e-01 8.996094422e-01 1.090053688e-01 8.996094422e-01 1.090053688e-01 1.003905578e-01 -1.090053688e-01
