! ADL5507 RFIN input reflection, variant 'shunt51', 1 MHz - 10 GHz (see adl5507_input_model.py)
! Data: ADL5507 Rev. 0 datasheet, Table 4, 10 MHz - 15 GHz; below 10 MHz extrapolated (series 25 pF coupling capacitor).
! 1-port: RFIN to ground (COMM). Reference impedance 50 ohm.
# HZ S RI R 50
1.000000e+06 1.244014061e-02 -4.177977347e-03
1.023293e+06 1.239686061e-02 -4.278597582e-03
1.047129e+06 1.235171420e-02 -4.380953697e-03
1.071519e+06 1.230462905e-02 -4.485046917e-03
1.096478e+06 1.225553073e-02 -4.590876173e-03
1.122018e+06 1.220434280e-02 -4.698437929e-03
1.148154e+06 1.215098676e-02 -4.807726017e-03
1.174898e+06 1.209538215e-02 -4.918731445e-03
1.202264e+06 1.203744652e-02 -5.031442221e-03
1.230269e+06 1.197709553e-02 -5.145843148e-03
1.258925e+06 1.191424300e-02 -5.261915633e-03
1.288250e+06 1.184880098e-02 -5.379637480e-03
1.318257e+06 1.178067985e-02 -5.498982678e-03
1.348963e+06 1.170978839e-02 -5.619921187e-03
1.380384e+06 1.163603397e-02 -5.742418725e-03
1.412538e+06 1.155932260e-02 -5.866436540e-03
1.445440e+06 1.147955914e-02 -5.991931193e-03
1.479108e+06 1.139664748e-02 -6.118854333e-03
1.513561e+06 1.131049068e-02 -6.247152473e-03
1.548817e+06 1.122099123e-02 -6.376766770e-03
1.584893e+06 1.112805129e-02 -6.507632806e-03
1.621810e+06 1.103157290e-02 -6.639680376e-03
1.659587e+06 1.093145831e-02 -6.772833280e-03
1.698244e+06 1.082761024e-02 -6.907009125e-03
1.737801e+06 1.071993227e-02 -7.042119139e-03
1.778279e+06 1.060832912e-02 -7.178067995e-03
1.819701e+06 1.049270708e-02 -7.314753653e-03
1.862087e+06 1.037297440e-02 -7.452067218e-03
1.905461e+06 1.024904173e-02 -7.589892821e-03
1.949845e+06 1.012082253e-02 -7.728107521e-03
1.995262e+06 9.988233598e-03 -7.866581234e-03
2.041738e+06 9.851195534e-03 -8.005176690e-03
2.089296e+06 9.709633273e-03 -8.143749430e-03
2.137962e+06 9.563476623e-03 -8.282147825e-03
2.187762e+06 9.412660817e-03 -8.420213147e-03
2.238721e+06 9.257127086e-03 -8.557779670e-03
2.290868e+06 9.096823244e-03 -8.694674826e-03
2.344229e+06 8.931704275e-03 -8.830719401e-03
2.398833e+06 8.761732935e-03 -8.965727782e-03
2.454709e+06 8.586880346e-03 -9.099508258e-03
2.511886e+06 8.407126593e-03 -9.231863374e-03
2.570396e+06 8.222461310e-03 -9.362590342e-03
2.630268e+06 8.032884251e-03 -9.491481506e-03
2.691535e+06 7.838405845e-03 -9.618324869e-03
2.754229e+06 7.639047724e-03 -9.742904674e-03
2.818383e+06 7.434843222e-03 -9.865002045e-03
2.884032e+06 7.225837833e-03 -9.984395684e-03
2.951209e+06 7.012089628e-03 -1.010086263e-02
3.019952e+06 6.793669626e-03 -1.021417903e-02
3.090295e+06 6.570662097e-03 -1.032412106e-02
3.162278e+06 6.343164814e-03 -1.043046575e-02
3.235937e+06 6.111289233e-03 -1.053299196e-02
3.311311e+06 5.875160595e-03 -1.063148134e-02
3.388442e+06 5.634917955e-03 -1.072571935e-02
3.467369e+06 5.390714123e-03 -1.081549626e-02
3.548134e+06 5.142715520e-03 -1.090060820e-02
3.630781e+06 4.891101944e-03 -1.098085817e-02
3.715352e+06 4.636066241e-03 -1.105605713e-02
3.801894e+06 4.377813888e-03 -1.112602497e-02
3.890451e+06 4.116562476e-03 -1.119059154e-02
3.981072e+06 3.852541107e-03 -1.124959759e-02
4.073803e+06 3.585989694e-03 -1.130289573e-02
4.168694e+06 3.317158182e-03 -1.135035127e-02
4.265795e+06 3.046305680e-03 -1.139184306e-02
4.365158e+06 2.773699521e-03 -1.142726420e-02
4.466836e+06 2.499614247e-03 -1.145652272e-02
4.570882e+06 2.224330539e-03 -1.147954216e-02
4.677351e+06 1.948134085e-03 -1.149626206e-02
4.786301e+06 1.671314414e-03 -1.150663830e-02
4.897788e+06 1.394163680e-03 -1.151064345e-02
5.011872e+06 1.116975444e-03 -1.150826690e-02
5.128614e+06 8.400434211e-04 -1.149951495e-02
5.248075e+06 5.636602450e-04 -1.148441076e-02
5.370318e+06 2.881162290e-04 -1.146299419e-02
5.495409e+06 1.369815458e-05 -1.143532156e-02
5.623413e+06 -2.593119103e-04 -1.140146531e-02
5.754399e+06 -5.306377516e-04 -1.136151349e-02
5.888437e+06 -8.000100977e-04 -1.131556925e-02
6.025596e+06 -1.067167648e-03 -1.126375017e-02
6.165950e+06 -1.331858033e-03 -1.120618755e-02
6.309573e+06 -1.593838701e-03 -1.114302564e-02
6.456542e+06 -1.852877721e-03 -1.107442073e-02
6.606934e+06 -2.108754502e-03 -1.100054029e-02
6.760830e+06 -2.361260424e-03 -1.092156196e-02
6.918310e+06 -2.610199372e-03 -1.083767263e-02
7.079458e+06 -2.855388182e-03 -1.074906734e-02
7.244360e+06 -3.096656994e-03 -1.065594831e-02
7.413102e+06 -3.333849505e-03 -1.055852388e-02
7.585776e+06 -3.566823141e-03 -1.045700746e-02
7.762471e+06 -3.795449135e-03 -1.035161653e-02
7.943282e+06 -4.019612518e-03 -1.024257159e-02
8.128305e+06 -4.239212039e-03 -1.013009524e-02
8.317638e+06 -4.454160002e-03 -1.001441119e-02
8.511380e+06 -4.664382034e-03 -9.895743357e-03
8.709636e+06 -4.869816791e-03 -9.774315005e-03
8.912509e+06 -5.070415605e-03 -9.650347934e-03
9.120108e+06 -5.266142082e-03 -9.524061706e-03
9.332543e+06 -5.456971648e-03 -9.395672937e-03
9.549926e+06 -5.642891064e-03 -9.265394642e-03
9.772372e+06 -5.823897902e-03 -9.133435637e-03
1.000000e+07 -6.000000000e-03 -9.000000000e-03
1.023293e+07 -6.050000000e-03 -8.970000000e-03
1.047129e+07 -6.100000000e-03 -8.940000000e-03
1.071519e+07 -6.150000000e-03 -8.910000000e-03
1.096478e+07 -6.200000000e-03 -8.880000000e-03
1.122018e+07 -6.250000000e-03 -8.850000000e-03
1.148154e+07 -6.300000000e-03 -8.820000000e-03
1.174898e+07 -6.350000000e-03 -8.790000000e-03
1.202264e+07 -6.400000000e-03 -8.760000000e-03
1.230269e+07 -6.450000000e-03 -8.730000000e-03
1.258925e+07 -6.500000000e-03 -8.700000000e-03
1.288250e+07 -6.550000000e-03 -8.670000000e-03
1.318257e+07 -6.600000000e-03 -8.640000000e-03
1.348963e+07 -6.650000000e-03 -8.610000000e-03
1.380384e+07 -6.700000000e-03 -8.580000000e-03
1.412538e+07 -6.750000000e-03 -8.550000000e-03
1.445440e+07 -6.800000000e-03 -8.520000000e-03
1.479108e+07 -6.850000000e-03 -8.490000000e-03
1.513561e+07 -6.900000000e-03 -8.460000000e-03
1.548817e+07 -6.950000000e-03 -8.430000000e-03
1.584893e+07 -7.000000000e-03 -8.400000000e-03
1.621810e+07 -7.050000000e-03 -8.370000000e-03
1.659587e+07 -7.100000000e-03 -8.340000000e-03
1.698244e+07 -7.150000000e-03 -8.310000000e-03
1.737801e+07 -7.200000000e-03 -8.280000000e-03
1.778279e+07 -7.250000000e-03 -8.250000000e-03
1.819701e+07 -7.300000000e-03 -8.220000000e-03
1.862087e+07 -7.350000000e-03 -8.190000000e-03
1.905461e+07 -7.400000000e-03 -8.160000000e-03
1.949845e+07 -7.450000000e-03 -8.130000000e-03
1.995262e+07 -7.500000000e-03 -8.100000000e-03
2.041738e+07 -7.550000000e-03 -8.070000000e-03
2.089296e+07 -7.600000000e-03 -8.040000000e-03
2.137962e+07 -7.650000000e-03 -8.010000000e-03
2.187762e+07 -7.700000000e-03 -7.980000000e-03
2.238721e+07 -7.750000000e-03 -7.950000000e-03
2.290868e+07 -7.800000000e-03 -7.920000000e-03
2.344229e+07 -7.850000000e-03 -7.890000000e-03
2.398833e+07 -7.900000000e-03 -7.860000000e-03
2.454709e+07 -7.950000000e-03 -7.830000000e-03
2.511886e+07 -8.000000000e-03 -7.800000000e-03
2.570396e+07 -8.050000000e-03 -7.770000000e-03
2.630268e+07 -8.100000000e-03 -7.740000000e-03
2.691535e+07 -8.150000000e-03 -7.710000000e-03
2.754229e+07 -8.200000000e-03 -7.680000000e-03
2.818383e+07 -8.250000000e-03 -7.650000000e-03
2.884032e+07 -8.300000000e-03 -7.620000000e-03
2.951209e+07 -8.350000000e-03 -7.590000000e-03
3.019952e+07 -8.400000000e-03 -7.560000000e-03
3.090295e+07 -8.450000000e-03 -7.530000000e-03
3.162278e+07 -8.500000000e-03 -7.500000000e-03
3.235937e+07 -8.550000000e-03 -7.470000000e-03
3.311311e+07 -8.600000000e-03 -7.440000000e-03
3.388442e+07 -8.650000000e-03 -7.410000000e-03
3.467369e+07 -8.700000000e-03 -7.380000000e-03
3.548134e+07 -8.750000000e-03 -7.350000000e-03
3.630781e+07 -8.800000000e-03 -7.320000000e-03
3.715352e+07 -8.850000000e-03 -7.290000000e-03
3.801894e+07 -8.900000000e-03 -7.260000000e-03
3.890451e+07 -8.950000000e-03 -7.230000000e-03
3.981072e+07 -9.000000000e-03 -7.200000000e-03
4.073803e+07 -9.050000000e-03 -7.170000000e-03
4.168694e+07 -9.100000000e-03 -7.140000000e-03
4.265795e+07 -9.150000000e-03 -7.110000000e-03
4.365158e+07 -9.200000000e-03 -7.080000000e-03
4.466836e+07 -9.250000000e-03 -7.050000000e-03
4.570882e+07 -9.300000000e-03 -7.020000000e-03
4.677351e+07 -9.350000000e-03 -6.990000000e-03
4.786301e+07 -9.400000000e-03 -6.960000000e-03
4.897788e+07 -9.450000000e-03 -6.930000000e-03
5.011872e+07 -9.500000000e-03 -6.900000000e-03
5.128614e+07 -9.550000000e-03 -6.870000000e-03
5.248075e+07 -9.600000000e-03 -6.840000000e-03
5.370318e+07 -9.650000000e-03 -6.810000000e-03
5.495409e+07 -9.700000000e-03 -6.780000000e-03
5.623413e+07 -9.750000000e-03 -6.750000000e-03
5.754399e+07 -9.800000000e-03 -6.720000000e-03
5.888437e+07 -9.850000000e-03 -6.690000000e-03
6.025596e+07 -9.900000000e-03 -6.660000000e-03
6.165950e+07 -9.950000000e-03 -6.630000000e-03
6.309573e+07 -1.000000000e-02 -6.600000000e-03
6.456542e+07 -1.005000000e-02 -6.570000000e-03
6.606934e+07 -1.010000000e-02 -6.540000000e-03
6.760830e+07 -1.015000000e-02 -6.510000000e-03
6.918310e+07 -1.020000000e-02 -6.480000000e-03
7.079458e+07 -1.025000000e-02 -6.450000000e-03
7.244360e+07 -1.030000000e-02 -6.420000000e-03
7.413102e+07 -1.035000000e-02 -6.390000000e-03
7.585776e+07 -1.040000000e-02 -6.360000000e-03
7.762471e+07 -1.045000000e-02 -6.330000000e-03
7.943282e+07 -1.050000000e-02 -6.300000000e-03
8.128305e+07 -1.055000000e-02 -6.270000000e-03
8.317638e+07 -1.060000000e-02 -6.240000000e-03
8.511380e+07 -1.065000000e-02 -6.210000000e-03
8.709636e+07 -1.070000000e-02 -6.180000000e-03
8.912509e+07 -1.075000000e-02 -6.150000000e-03
9.120108e+07 -1.080000000e-02 -6.120000000e-03
9.332543e+07 -1.085000000e-02 -6.090000000e-03
9.549926e+07 -1.090000000e-02 -6.060000000e-03
9.772372e+07 -1.095000000e-02 -6.030000000e-03
1.000000e+08 -1.100000000e-02 -6.000000000e-03
1.023293e+08 -1.098569323e-02 -6.286135312e-03
1.047129e+08 -1.097138647e-02 -6.572270623e-03
1.071519e+08 -1.095707970e-02 -6.858405935e-03
1.096478e+08 -1.094277294e-02 -7.144541246e-03
1.122018e+08 -1.092846617e-02 -7.430676558e-03
1.148154e+08 -1.091415941e-02 -7.716811870e-03
1.174898e+08 -1.089985264e-02 -8.002947181e-03
1.202264e+08 -1.088554588e-02 -8.289082493e-03
1.230269e+08 -1.087123911e-02 -8.575217805e-03
1.258925e+08 -1.085693234e-02 -8.861353116e-03
1.288250e+08 -1.084262558e-02 -9.147488428e-03
1.318257e+08 -1.082831881e-02 -9.433623739e-03
1.348963e+08 -1.081401205e-02 -9.719759051e-03
1.380384e+08 -1.079970528e-02 -1.000589436e-02
1.412538e+08 -1.078539852e-02 -1.029202967e-02
1.445440e+08 -1.077109175e-02 -1.057816499e-02
1.479108e+08 -1.075678499e-02 -1.086430030e-02
1.513561e+08 -1.074247822e-02 -1.115043561e-02
1.548817e+08 -1.072817145e-02 -1.143657092e-02
1.584893e+08 -1.071386469e-02 -1.172270623e-02
1.621810e+08 -1.069955792e-02 -1.200884154e-02
1.659587e+08 -1.068525116e-02 -1.229497686e-02
1.698244e+08 -1.067094439e-02 -1.258111217e-02
1.737801e+08 -1.065663763e-02 -1.286724748e-02
1.778279e+08 -1.064233086e-02 -1.315338279e-02
1.819701e+08 -1.062802409e-02 -1.343951810e-02
1.862087e+08 -1.061371733e-02 -1.372565341e-02
1.905461e+08 -1.059941056e-02 -1.401178873e-02
1.949845e+08 -1.058510380e-02 -1.429792404e-02
1.995262e+08 -1.057079703e-02 -1.458405935e-02
2.041738e+08 -1.055649027e-02 -1.487019466e-02
2.089296e+08 -1.054218350e-02 -1.515632997e-02
2.137962e+08 -1.052787674e-02 -1.544246528e-02
2.187762e+08 -1.051356997e-02 -1.572860059e-02
2.238721e+08 -1.049926320e-02 -1.601473591e-02
2.290868e+08 -1.048495644e-02 -1.630087122e-02
2.344229e+08 -1.047064967e-02 -1.658700653e-02
2.398833e+08 -1.045634291e-02 -1.687314184e-02
2.454709e+08 -1.044203614e-02 -1.715927715e-02
2.511886e+08 -1.042772938e-02 -1.744541246e-02
2.570396e+08 -1.041342261e-02 -1.773154778e-02
2.630268e+08 -1.039911585e-02 -1.801768309e-02
2.691535e+08 -1.038480908e-02 -1.830381840e-02
2.754229e+08 -1.037050231e-02 -1.858995371e-02
2.818383e+08 -1.035619555e-02 -1.887608902e-02
2.884032e+08 -1.034188878e-02 -1.916222433e-02
2.951209e+08 -1.032758202e-02 -1.944835965e-02
3.019952e+08 -1.031327525e-02 -1.973449496e-02
3.090295e+08 -1.029896849e-02 -2.002063027e-02
3.162278e+08 -1.028466172e-02 -2.030676558e-02
3.235937e+08 -1.027035496e-02 -2.059290089e-02
3.311311e+08 -1.025604819e-02 -2.087903620e-02
3.388442e+08 -1.024174142e-02 -2.116517152e-02
3.467369e+08 -1.022743466e-02 -2.145130683e-02
3.548134e+08 -1.021312789e-02 -2.173744214e-02
3.630781e+08 -1.019882113e-02 -2.202357745e-02
3.715352e+08 -1.018451436e-02 -2.230971276e-02
3.801894e+08 -1.017020760e-02 -2.259584807e-02
3.890451e+08 -1.015590083e-02 -2.288198339e-02
3.981072e+08 -1.014159407e-02 -2.316811870e-02
4.073803e+08 -1.012728730e-02 -2.345425401e-02
4.168694e+08 -1.011298053e-02 -2.374038932e-02
4.265795e+08 -1.009867377e-02 -2.402652463e-02
4.365158e+08 -1.008436700e-02 -2.431265994e-02
4.466836e+08 -1.007006024e-02 -2.459879525e-02
4.570882e+08 -1.005575347e-02 -2.488493057e-02
4.677351e+08 -1.004144671e-02 -2.517106588e-02
4.786301e+08 -1.002713994e-02 -2.545720119e-02
4.897788e+08 -1.001283317e-02 -2.574333650e-02
5.011872e+08 -1.000000000e-02 -2.609580400e-02
5.128614e+08 -1.000000000e-02 -2.702594387e-02
5.248075e+08 -1.000000000e-02 -2.795608374e-02
5.370318e+08 -1.000000000e-02 -2.888622360e-02
5.495409e+08 -1.000000000e-02 -2.981636347e-02
5.623413e+08 -1.000000000e-02 -3.074650334e-02
5.754399e+08 -1.000000000e-02 -3.167664320e-02
5.888437e+08 -1.000000000e-02 -3.260678307e-02
6.025596e+08 -1.000000000e-02 -3.353692294e-02
6.165950e+08 -1.000000000e-02 -3.446706280e-02
6.309573e+08 -1.000000000e-02 -3.539720267e-02
6.456542e+08 -1.000000000e-02 -3.632734254e-02
6.606934e+08 -1.000000000e-02 -3.725748240e-02
6.760830e+08 -1.000000000e-02 -3.818762227e-02
6.918310e+08 -1.000000000e-02 -3.911776213e-02
7.079458e+08 -1.000000000e-02 -4.004790200e-02
7.244360e+08 -1.000000000e-02 -4.097804187e-02
7.413102e+08 -1.000000000e-02 -4.190818173e-02
7.585776e+08 -1.000000000e-02 -4.283832160e-02
7.762471e+08 -1.000000000e-02 -4.376846147e-02
7.943282e+08 -1.000000000e-02 -4.469860133e-02
8.128305e+08 -1.000000000e-02 -4.562874120e-02
8.317638e+08 -1.000000000e-02 -4.655888107e-02
8.511380e+08 -1.000000000e-02 -4.748902093e-02
8.709636e+08 -1.000000000e-02 -4.841916080e-02
8.912509e+08 -1.000000000e-02 -4.934930067e-02
9.120108e+08 -1.000000000e-02 -5.027944053e-02
9.332543e+08 -1.000000000e-02 -5.120958040e-02
9.549926e+08 -1.000000000e-02 -5.213972027e-02
9.772372e+08 -1.000000000e-02 -5.306986013e-02
1.000000e+09 -1.000000000e-02 -5.400000000e-02
1.023293e+09 -9.933561438e-03 -5.595993758e-02
1.047129e+09 -9.867122876e-03 -5.791987515e-02
1.071519e+09 -9.800684314e-03 -5.987981273e-02
1.096478e+09 -9.734245752e-03 -6.183975030e-02
1.122018e+09 -9.667807191e-03 -6.379968788e-02
1.148154e+09 -9.601368629e-03 -6.575962546e-02
1.174898e+09 -9.534930067e-03 -6.771956303e-02
1.202264e+09 -9.468491505e-03 -6.967950061e-02
1.230269e+09 -9.402052943e-03 -7.163943818e-02
1.258925e+09 -9.335614381e-03 -7.359937576e-02
1.288250e+09 -9.269175819e-03 -7.555931334e-02
1.318257e+09 -9.202737257e-03 -7.751925091e-02
1.348963e+09 -9.136298695e-03 -7.947918849e-02
1.380384e+09 -9.069860133e-03 -8.143912606e-02
1.412538e+09 -9.003421572e-03 -8.339906364e-02
1.445440e+09 -8.936983010e-03 -8.535900122e-02
1.479108e+09 -8.870544448e-03 -8.731893879e-02
1.513561e+09 -8.804105886e-03 -8.927887637e-02
1.548817e+09 -8.737667324e-03 -9.123881394e-02
1.584893e+09 -8.671228762e-03 -9.319875152e-02
1.621810e+09 -8.604790200e-03 -9.515868910e-02
1.659587e+09 -8.538351638e-03 -9.711862667e-02
1.698244e+09 -8.471913076e-03 -9.907856425e-02
1.737801e+09 -8.405474514e-03 -1.010385018e-01
1.778279e+09 -8.339035953e-03 -1.029984394e-01
1.819701e+09 -8.272597391e-03 -1.049583770e-01
1.862087e+09 -8.206158829e-03 -1.069183146e-01
1.905461e+09 -8.139720267e-03 -1.088782521e-01
1.949845e+09 -8.073281705e-03 -1.108381897e-01
1.995262e+09 -8.006843143e-03 -1.127981273e-01
2.041738e+09 -7.745302396e-03 -1.163620084e-01
2.089296e+09 -7.461358717e-03 -1.201100649e-01
2.137962e+09 -7.177415038e-03 -1.238581215e-01
2.187762e+09 -6.893471358e-03 -1.276061781e-01
2.238721e+09 -6.609527679e-03 -1.313542346e-01
2.290868e+09 -6.325584000e-03 -1.351022912e-01
2.344229e+09 -6.041640320e-03 -1.388503478e-01
2.398833e+09 -5.757696641e-03 -1.425984043e-01
2.454709e+09 -5.473752962e-03 -1.463464609e-01
2.511886e+09 -5.189809282e-03 -1.500945175e-01
2.570396e+09 -4.905865603e-03 -1.538425740e-01
2.630268e+09 -4.621921923e-03 -1.575906306e-01
2.691535e+09 -4.337978244e-03 -1.613386872e-01
2.754229e+09 -4.054034565e-03 -1.650867437e-01
2.818383e+09 -3.770090885e-03 -1.688348003e-01
2.884032e+09 -3.486147206e-03 -1.725828569e-01
2.951209e+09 -3.202203527e-03 -1.763309134e-01
3.019952e+09 -2.792628706e-03 -1.806359291e-01
3.090295e+09 -2.072275655e-03 -1.863187143e-01
3.162278e+09 -1.351922605e-03 -1.920014994e-01
3.235937e+09 -6.315695552e-04 -1.976842846e-01
3.311311e+09 8.878349501e-05 -2.033670698e-01
3.388442e+09 8.091365452e-04 -2.090498550e-01
3.467369e+09 1.529489595e-03 -2.147326401e-01
3.548134e+09 2.249842646e-03 -2.204154253e-01
3.630781e+09 2.970195696e-03 -2.260982105e-01
3.715352e+09 3.690548746e-03 -2.317809957e-01
3.801894e+09 4.410901796e-03 -2.374637808e-01
3.890451e+09 5.131254846e-03 -2.431465660e-01
3.981072e+09 5.851607896e-03 -2.488293512e-01
4.073803e+09 6.491590606e-03 -2.559810190e-01
4.168694e+09 7.110721676e-03 -2.635137804e-01
4.265795e+09 7.729852745e-03 -2.710465417e-01
4.365158e+09 8.348983815e-03 -2.785793031e-01
4.466836e+09 8.968114884e-03 -2.861120644e-01
4.570882e+09 9.587245954e-03 -2.936448258e-01
4.677351e+09 1.020637702e-02 -3.011775871e-01
4.786301e+09 1.082550809e-02 -3.087103485e-01
4.897788e+09 1.144463916e-02 -3.162431098e-01
5.011872e+09 1.176585463e-02 -3.238975572e-01
5.128614e+09 9.492589068e-03 -3.326117419e-01
5.248075e+09 7.219323503e-03 -3.413259266e-01
5.370318e+09 4.946057939e-03 -3.500401112e-01
5.495409e+09 2.672792374e-03 -3.587542959e-01
5.623413e+09 3.995268097e-04 -3.674684806e-01
5.754399e+09 -1.873738755e-03 -3.761826652e-01
5.888437e+09 -4.147004319e-03 -3.848968499e-01
6.025596e+09 -7.574066938e-03 -3.939882951e-01
6.165950e+09 -1.608829149e-02 -4.047431050e-01
6.309573e+09 -2.460251604e-02 -4.154979150e-01
6.456542e+09 -3.311674060e-02 -4.262527250e-01
6.606934e+09 -4.163096515e-02 -4.370075349e-01
6.760830e+09 -5.014518970e-02 -4.477623449e-01
6.918310e+09 -5.865941425e-02 -4.585171548e-01
7.079458e+09 -7.491848858e-02 -4.673811315e-01
7.244360e+09 -9.923220925e-02 -4.742786409e-01
7.413102e+09 -1.235459299e-01 -4.811761503e-01
7.585776e+09 -1.478596506e-01 -4.880736597e-01
7.762471e+09 -1.721733713e-01 -4.949711692e-01
7.943282e+09 -1.964870919e-01 -5.018686786e-01
8.128305e+09 -2.242629685e-01 -5.095385447e-01
8.317638e+09 -2.535870356e-01 -5.175537897e-01
8.511380e+09 -2.829111027e-01 -5.255690347e-01
8.709636e+09 -3.122351698e-01 -5.335842797e-01
8.912509e+09 -3.415592369e-01 -5.415995247e-01
9.120108e+09 -3.840724587e-01 -5.341789479e-01
9.332543e+09 -4.363043440e-01 -5.153842109e-01
9.549926e+09 -4.885362293e-01 -4.965894740e-01
9.772372e+09 -5.407681147e-01 -4.777947370e-01
1.000000e+10 -5.930000000e-01 -4.590000000e-01
