! ADL5507 RFIN input reflection, variant 'raw', 1 MHz - 10 GHz (see adl5507_input_model.py)
! Data: ADL5507 Rev. 0 datasheet, Table 5, 10 MHz - 15 GHz; below 10 MHz extrapolated (series 25 pF coupling capacitor).
! 1-port: RFIN to ground (COMM). Reference impedance 50 ohm.
# HZ S RI R 50
1.000000e+06 9.961613977e-01 -1.842529118e-02
1.023293e+06 9.959883544e-01 -1.881758094e-02
1.047129e+06 9.958078802e-01 -1.921652794e-02
1.071519e+06 9.956196898e-01 -1.962212803e-02
1.096478e+06 9.954234901e-01 -2.003436764e-02
1.122018e+06 9.952189805e-01 -2.045322309e-02
1.148154e+06 9.950058523e-01 -2.087865988e-02
1.174898e+06 9.947837897e-01 -2.131063201e-02
1.202264e+06 9.945524694e-01 -2.174908120e-02
1.230269e+06 9.943115611e-01 -2.219393614e-02
1.258925e+06 9.940607278e-01 -2.264511173e-02
1.288250e+06 9.937996259e-01 -2.310250821e-02
1.318257e+06 9.935279058e-01 -2.356601043e-02
1.348963e+06 9.932452126e-01 -2.403548693e-02
1.380384e+06 9.929511859e-01 -2.451078914e-02
1.412538e+06 9.926454613e-01 -2.499175053e-02
1.445440e+06 9.923276702e-01 -2.547818572e-02
1.479108e+06 9.919974413e-01 -2.596988967e-02
1.513561e+06 9.916544009e-01 -2.646663679e-02
1.548817e+06 9.912981738e-01 -2.696818013e-02
1.584893e+06 9.909283849e-01 -2.747425057e-02
1.621810e+06 9.905446593e-01 -2.798455598e-02
1.659587e+06 9.901466244e-01 -2.849878054e-02
1.698244e+06 9.897339105e-01 -2.901658395e-02
1.737801e+06 9.893061527e-01 -2.953760078e-02
1.778279e+06 9.888629917e-01 -3.006143990e-02
1.819701e+06 9.884040761e-01 -3.058768387e-02
1.862087e+06 9.879290634e-01 -3.111588857e-02
1.905461e+06 9.874376219e-01 -3.164558273e-02
1.949845e+06 9.869294329e-01 -3.217626772e-02
1.995262e+06 9.864041922e-01 -3.270741740e-02
2.041738e+06 9.858616121e-01 -3.323847803e-02
2.089296e+06 9.853014237e-01 -3.376886842e-02
2.137962e+06 9.847233789e-01 -3.429798017e-02
2.187762e+06 9.841272525e-01 -3.482517807e-02
2.238721e+06 9.835128446e-01 -3.534980069e-02
2.290868e+06 9.828799828e-01 -3.587116111e-02
2.344229e+06 9.822285245e-01 -3.638854792e-02
2.398833e+06 9.815583591e-01 -3.690122634e-02
2.454709e+06 9.808694104e-01 -3.740843956e-02
2.511886e+06 9.801616389e-01 -3.790941036e-02
2.570396e+06 9.794350436e-01 -3.840334286e-02
2.630268e+06 9.786896649e-01 -3.888942456e-02
2.691535e+06 9.779255856e-01 -3.936682855e-02
2.754229e+06 9.771429337e-01 -3.983471598e-02
2.818383e+06 9.763418838e-01 -4.029223873e-02
2.884032e+06 9.755226585e-01 -4.073854229e-02
2.951209e+06 9.746855301e-01 -4.117276884e-02
3.019952e+06 9.738308220e-01 -4.159406052e-02
3.090295e+06 9.729589088e-01 -4.200156287e-02
3.162278e+06 9.720702179e-01 -4.239442845e-02
3.235937e+06 9.711652296e-01 -4.277182051e-02
3.311311e+06 9.702444768e-01 -4.313291691e-02
3.388442e+06 9.693085454e-01 -4.347691394e-02
3.467369e+06 9.683580734e-01 -4.380303036e-02
3.548134e+06 9.673937499e-01 -4.411051137e-02
3.630781e+06 9.664163143e-01 -4.439863254e-02
3.715352e+06 9.654265541e-01 -4.466670377e-02
3.801894e+06 9.644253035e-01 -4.491407310e-02
3.890451e+06 9.634134404e-01 -4.514013044e-02
3.981072e+06 9.623918846e-01 -4.534431105e-02
4.073803e+06 9.613615941e-01 -4.552609896e-02
4.168694e+06 9.603235619e-01 -4.568503002e-02
4.265795e+06 9.592788127e-01 -4.582069477e-02
4.365158e+06 9.582283986e-01 -4.593274097e-02
4.466836e+06 9.571733956e-01 -4.602087580e-02
4.570882e+06 9.561148984e-01 -4.608486772e-02
4.677351e+06 9.550540168e-01 -4.612454795e-02
4.786301e+06 9.539918703e-01 -4.613981155e-02
4.897788e+06 9.529295840e-01 -4.613061810e-02
5.011872e+06 9.518682836e-01 -4.609699194e-02
5.128614e+06 9.508090905e-01 -4.603902205e-02
5.248075e+06 9.497531172e-01 -4.595686144e-02
5.370318e+06 9.487014628e-01 -4.585072621e-02
5.495409e+06 9.476552081e-01 -4.572089411e-02
5.623413e+06 9.466154117e-01 -4.556770282e-02
5.754399e+06 9.455831053e-01 -4.539154783e-02
5.888437e+06 9.445592903e-01 -4.519287997e-02
6.025596e+06 9.435449338e-01 -4.497220262e-02
6.165950e+06 9.425409650e-01 -4.473006871e-02
6.309573e+06 9.415482728e-01 -4.446707740e-02
6.456542e+06 9.405677023e-01 -4.418387060e-02
6.606934e+06 9.396000529e-01 -4.388112930e-02
6.760830e+06 9.386460760e-01 -4.355956975e-02
6.918310e+06 9.377064734e-01 -4.321993959e-02
7.079458e+06 9.367818959e-01 -4.286301388e-02
7.244360e+06 9.358729422e-01 -4.248959111e-02
7.413102e+06 9.349801587e-01 -4.210048922e-02
7.585776e+06 9.341040386e-01 -4.169654169e-02
7.762471e+06 9.332450223e-01 -4.127859365e-02
7.943282e+06 9.324034977e-01 -4.084749818e-02
8.128305e+06 9.315798006e-01 -4.040411261e-02
8.317638e+06 9.307742160e-01 -3.994929507e-02
8.511380e+06 9.299869787e-01 -3.948390121e-02
8.709636e+06 9.292182751e-01 -3.900878100e-02
8.912509e+06 9.284682445e-01 -3.852477585e-02
9.120108e+06 9.277369810e-01 -3.803271588e-02
9.332543e+06 9.270245350e-01 -3.753341737e-02
9.549926e+06 9.263309159e-01 -3.702768054e-02
9.772372e+06 9.256560933e-01 -3.651628741e-02
1.000000e+07 9.250000000e-01 -3.600000000e-02
1.023293e+07 9.248300000e-01 -3.592000000e-02
1.047129e+07 9.246600000e-01 -3.584000000e-02
1.071519e+07 9.244900000e-01 -3.576000000e-02
1.096478e+07 9.243200000e-01 -3.568000000e-02
1.122018e+07 9.241500000e-01 -3.560000000e-02
1.148154e+07 9.239800000e-01 -3.552000000e-02
1.174898e+07 9.238100000e-01 -3.544000000e-02
1.202264e+07 9.236400000e-01 -3.536000000e-02
1.230269e+07 9.234700000e-01 -3.528000000e-02
1.258925e+07 9.233000000e-01 -3.520000000e-02
1.288250e+07 9.231300000e-01 -3.512000000e-02
1.318257e+07 9.229600000e-01 -3.504000000e-02
1.348963e+07 9.227900000e-01 -3.496000000e-02
1.380384e+07 9.226200000e-01 -3.488000000e-02
1.412538e+07 9.224500000e-01 -3.480000000e-02
1.445440e+07 9.222800000e-01 -3.472000000e-02
1.479108e+07 9.221100000e-01 -3.464000000e-02
1.513561e+07 9.219400000e-01 -3.456000000e-02
1.548817e+07 9.217700000e-01 -3.448000000e-02
1.584893e+07 9.216000000e-01 -3.440000000e-02
1.621810e+07 9.214300000e-01 -3.432000000e-02
1.659587e+07 9.212600000e-01 -3.424000000e-02
1.698244e+07 9.210900000e-01 -3.416000000e-02
1.737801e+07 9.209200000e-01 -3.408000000e-02
1.778279e+07 9.207500000e-01 -3.400000000e-02
1.819701e+07 9.205800000e-01 -3.392000000e-02
1.862087e+07 9.204100000e-01 -3.384000000e-02
1.905461e+07 9.202400000e-01 -3.376000000e-02
1.949845e+07 9.200700000e-01 -3.368000000e-02
1.995262e+07 9.199000000e-01 -3.360000000e-02
2.041738e+07 9.197300000e-01 -3.352000000e-02
2.089296e+07 9.195600000e-01 -3.344000000e-02
2.137962e+07 9.193900000e-01 -3.336000000e-02
2.187762e+07 9.192200000e-01 -3.328000000e-02
2.238721e+07 9.190500000e-01 -3.320000000e-02
2.290868e+07 9.188800000e-01 -3.312000000e-02
2.344229e+07 9.187100000e-01 -3.304000000e-02
2.398833e+07 9.185400000e-01 -3.296000000e-02
2.454709e+07 9.183700000e-01 -3.288000000e-02
2.511886e+07 9.182000000e-01 -3.280000000e-02
2.570396e+07 9.180300000e-01 -3.272000000e-02
2.630268e+07 9.178600000e-01 -3.264000000e-02
2.691535e+07 9.176900000e-01 -3.256000000e-02
2.754229e+07 9.175200000e-01 -3.248000000e-02
2.818383e+07 9.173500000e-01 -3.240000000e-02
2.884032e+07 9.171800000e-01 -3.232000000e-02
2.951209e+07 9.170100000e-01 -3.224000000e-02
3.019952e+07 9.168400000e-01 -3.216000000e-02
3.090295e+07 9.166700000e-01 -3.208000000e-02
3.162278e+07 9.165000000e-01 -3.200000000e-02
3.235937e+07 9.163300000e-01 -3.192000000e-02
3.311311e+07 9.161600000e-01 -3.184000000e-02
3.388442e+07 9.159900000e-01 -3.176000000e-02
3.467369e+07 9.158200000e-01 -3.168000000e-02
3.548134e+07 9.156500000e-01 -3.160000000e-02
3.630781e+07 9.154800000e-01 -3.152000000e-02
3.715352e+07 9.153100000e-01 -3.144000000e-02
3.801894e+07 9.151400000e-01 -3.136000000e-02
3.890451e+07 9.149700000e-01 -3.128000000e-02
3.981072e+07 9.148000000e-01 -3.120000000e-02
4.073803e+07 9.146300000e-01 -3.112000000e-02
4.168694e+07 9.144600000e-01 -3.104000000e-02
4.265795e+07 9.142900000e-01 -3.096000000e-02
4.365158e+07 9.141200000e-01 -3.088000000e-02
4.466836e+07 9.139500000e-01 -3.080000000e-02
4.570882e+07 9.137800000e-01 -3.072000000e-02
4.677351e+07 9.136100000e-01 -3.064000000e-02
4.786301e+07 9.134400000e-01 -3.056000000e-02
4.897788e+07 9.132700000e-01 -3.048000000e-02
5.011872e+07 9.131000000e-01 -3.040000000e-02
5.128614e+07 9.129300000e-01 -3.032000000e-02
5.248075e+07 9.127600000e-01 -3.024000000e-02
5.370318e+07 9.125900000e-01 -3.016000000e-02
5.495409e+07 9.124200000e-01 -3.008000000e-02
5.623413e+07 9.122500000e-01 -3.000000000e-02
5.754399e+07 9.120800000e-01 -2.992000000e-02
5.888437e+07 9.119100000e-01 -2.984000000e-02
6.025596e+07 9.117400000e-01 -2.976000000e-02
6.165950e+07 9.115700000e-01 -2.968000000e-02
6.309573e+07 9.114000000e-01 -2.960000000e-02
6.456542e+07 9.112300000e-01 -2.952000000e-02
6.606934e+07 9.110600000e-01 -2.944000000e-02
6.760830e+07 9.108900000e-01 -2.936000000e-02
6.918310e+07 9.107200000e-01 -2.928000000e-02
7.079458e+07 9.105500000e-01 -2.920000000e-02
7.244360e+07 9.103800000e-01 -2.912000000e-02
7.413102e+07 9.102100000e-01 -2.904000000e-02
7.585776e+07 9.100400000e-01 -2.896000000e-02
7.762471e+07 9.098700000e-01 -2.888000000e-02
7.943282e+07 9.097000000e-01 -2.880000000e-02
8.128305e+07 9.095300000e-01 -2.872000000e-02
8.317638e+07 9.093600000e-01 -2.864000000e-02
8.511380e+07 9.091900000e-01 -2.856000000e-02
8.709636e+07 9.090200000e-01 -2.848000000e-02
8.912509e+07 9.088500000e-01 -2.840000000e-02
9.120108e+07 9.086800000e-01 -2.832000000e-02
9.332543e+07 9.085100000e-01 -2.824000000e-02
9.549926e+07 9.083400000e-01 -2.816000000e-02
9.772372e+07 9.081700000e-01 -2.808000000e-02
1.000000e+08 9.080000000e-01 -2.800000000e-02
1.023293e+08 9.078998526e-01 -2.923038184e-02
1.047129e+08 9.077997053e-01 -3.046076368e-02
1.071519e+08 9.076995579e-01 -3.169114552e-02
1.096478e+08 9.075994106e-01 -3.292152736e-02
1.122018e+08 9.074992632e-01 -3.415190920e-02
1.148154e+08 9.073991158e-01 -3.538229104e-02
1.174898e+08 9.072989685e-01 -3.661267288e-02
1.202264e+08 9.071988211e-01 -3.784305472e-02
1.230269e+08 9.070986738e-01 -3.907343656e-02
1.258925e+08 9.069985264e-01 -4.030381840e-02
1.288250e+08 9.068983791e-01 -4.153420024e-02
1.318257e+08 9.067982317e-01 -4.276458208e-02
1.348963e+08 9.066980843e-01 -4.399496392e-02
1.380384e+08 9.065979370e-01 -4.522534576e-02
1.412538e+08 9.064977896e-01 -4.645572760e-02
1.445440e+08 9.063976423e-01 -4.768610944e-02
1.479108e+08 9.062974949e-01 -4.891649128e-02
1.513561e+08 9.061973475e-01 -5.014687312e-02
1.548817e+08 9.060972002e-01 -5.137725496e-02
1.584893e+08 9.059970528e-01 -5.260763680e-02
1.621810e+08 9.058969055e-01 -5.383801864e-02
1.659587e+08 9.057967581e-01 -5.506840048e-02
1.698244e+08 9.056966107e-01 -5.629878232e-02
1.737801e+08 9.055964634e-01 -5.752916416e-02
1.778279e+08 9.054963160e-01 -5.875954600e-02
1.819701e+08 9.053961687e-01 -5.998992784e-02
1.862087e+08 9.052960213e-01 -6.122030968e-02
1.905461e+08 9.051958739e-01 -6.245069152e-02
1.949845e+08 9.050957266e-01 -6.368107336e-02
1.995262e+08 9.049955792e-01 -6.491145520e-02
2.041738e+08 9.048954319e-01 -6.614183704e-02
2.089296e+08 9.047952845e-01 -6.737221888e-02
2.137962e+08 9.046951372e-01 -6.860260072e-02
2.187762e+08 9.045949898e-01 -6.983298256e-02
2.238721e+08 9.044948424e-01 -7.106336440e-02
2.290868e+08 9.043946951e-01 -7.229374624e-02
2.344229e+08 9.042945477e-01 -7.352412808e-02
2.398833e+08 9.041944004e-01 -7.475450992e-02
2.454709e+08 9.040942530e-01 -7.598489176e-02
2.511886e+08 9.039941056e-01 -7.721527360e-02
2.570396e+08 9.038939583e-01 -7.844565544e-02
2.630268e+08 9.037938109e-01 -7.967603728e-02
2.691535e+08 9.036936636e-01 -8.090641912e-02
2.754229e+08 9.035935162e-01 -8.213680096e-02
2.818383e+08 9.034933688e-01 -8.336718280e-02
2.884032e+08 9.033932215e-01 -8.459756464e-02
2.951209e+08 9.032930741e-01 -8.582794648e-02
3.019952e+08 9.031929268e-01 -8.705832832e-02
3.090295e+08 9.030927794e-01 -8.828871016e-02
3.162278e+08 9.029926320e-01 -8.951909200e-02
3.235937e+08 9.028924847e-01 -9.074947384e-02
3.311311e+08 9.027923373e-01 -9.197985568e-02
3.388442e+08 9.026921900e-01 -9.321023752e-02
3.467369e+08 9.025920426e-01 -9.444061936e-02
3.548134e+08 9.024918953e-01 -9.567100120e-02
3.630781e+08 9.023917479e-01 -9.690138304e-02
3.715352e+08 9.022916005e-01 -9.813176488e-02
3.801894e+08 9.021914532e-01 -9.936214672e-02
3.890451e+08 9.020913058e-01 -1.005925286e-01
3.981072e+08 9.019911585e-01 -1.018229104e-01
4.073803e+08 9.018910111e-01 -1.030532922e-01
4.168694e+08 9.017908637e-01 -1.042836741e-01
4.265795e+08 9.016907164e-01 -1.055140559e-01
4.365158e+08 9.015905690e-01 -1.067444378e-01
4.466836e+08 9.014904217e-01 -1.079748196e-01
4.570882e+08 9.013902743e-01 -1.092052014e-01
4.677351e+08 9.012901269e-01 -1.104355833e-01
4.786301e+08 9.011899796e-01 -1.116659651e-01
4.897788e+08 9.010898322e-01 -1.128963470e-01
5.011872e+08 9.009144607e-01 -1.143695297e-01
5.128614e+08 9.000839787e-01 -1.179572121e-01
5.248075e+08 8.992534967e-01 -1.215448944e-01
5.370318e+08 8.984230146e-01 -1.251325768e-01
5.495409e+08 8.975925326e-01 -1.287202591e-01
5.623413e+08 8.967620506e-01 -1.323079414e-01
5.754399e+08 8.959315686e-01 -1.358956238e-01
5.888437e+08 8.951010865e-01 -1.394833061e-01
6.025596e+08 8.942706045e-01 -1.430709885e-01
6.165950e+08 8.934401225e-01 -1.466586708e-01
6.309573e+08 8.926096405e-01 -1.502463532e-01
6.456542e+08 8.917791585e-01 -1.538340355e-01
6.606934e+08 8.909486764e-01 -1.574217178e-01
6.760830e+08 8.901181944e-01 -1.610094002e-01
6.918310e+08 8.892877124e-01 -1.645970825e-01
7.079458e+08 8.884572304e-01 -1.681847649e-01
7.244360e+08 8.876267483e-01 -1.717724472e-01
7.413102e+08 8.867962663e-01 -1.753601295e-01
7.585776e+08 8.859657843e-01 -1.789478119e-01
7.762471e+08 8.851353023e-01 -1.825354942e-01
7.943282e+08 8.843048202e-01 -1.861231766e-01
8.128305e+08 8.834743382e-01 -1.897108589e-01
8.317638e+08 8.826438562e-01 -1.932985413e-01
8.511380e+08 8.818133742e-01 -1.968862236e-01
8.709636e+08 8.809828921e-01 -2.004739059e-01
8.912509e+08 8.801524101e-01 -2.040615883e-01
9.120108e+08 8.793219281e-01 -2.076492706e-01
9.332543e+08 8.784914461e-01 -2.112369530e-01
9.549926e+08 8.776609640e-01 -2.148246353e-01
9.772372e+08 8.768304820e-01 -2.184123177e-01
1.000000e+09 8.760000000e-01 -2.220000000e-01
1.023293e+09 8.729770454e-01 -2.284113212e-01
1.047129e+09 8.699540909e-01 -2.348226424e-01
1.071519e+09 8.669311363e-01 -2.412339637e-01
1.096478e+09 8.639081817e-01 -2.476452849e-01
1.122018e+09 8.608852272e-01 -2.540566061e-01
1.148154e+09 8.578622726e-01 -2.604679273e-01
1.174898e+09 8.548393180e-01 -2.668792486e-01
1.202264e+09 8.518163635e-01 -2.732905698e-01
1.230269e+09 8.487934089e-01 -2.797018910e-01
1.258925e+09 8.457704543e-01 -2.861132122e-01
1.288250e+09 8.427474998e-01 -2.925245335e-01
1.318257e+09 8.397245452e-01 -2.989358547e-01
1.348963e+09 8.367015906e-01 -3.053471759e-01
1.380384e+09 8.336786361e-01 -3.117584971e-01
1.412538e+09 8.306556815e-01 -3.181698183e-01
1.445440e+09 8.276327269e-01 -3.245811396e-01
1.479108e+09 8.246097724e-01 -3.309924608e-01
1.513561e+09 8.215868178e-01 -3.374037820e-01
1.548817e+09 8.185638632e-01 -3.438151032e-01
1.584893e+09 8.155409087e-01 -3.502264245e-01
1.621810e+09 8.125179541e-01 -3.566377457e-01
1.659587e+09 8.094949995e-01 -3.630490669e-01
1.698244e+09 8.064720450e-01 -3.694603881e-01
1.737801e+09 8.034490904e-01 -3.758717094e-01
1.778279e+09 8.004261358e-01 -3.822830306e-01
1.819701e+09 7.974031813e-01 -3.886943518e-01
1.862087e+09 7.943802267e-01 -3.951056730e-01
1.905461e+09 7.913572721e-01 -4.015169942e-01
1.949845e+09 7.883343176e-01 -4.079283155e-01
1.995262e+09 7.853113630e-01 -4.143396367e-01
2.041738e+09 7.789381970e-01 -4.226918676e-01
2.089296e+09 7.721803375e-01 -4.312669667e-01
2.137962e+09 7.654224779e-01 -4.398420659e-01
2.187762e+09 7.586646183e-01 -4.484171650e-01
2.238721e+09 7.519067588e-01 -4.569922641e-01
2.290868e+09 7.451488992e-01 -4.655673632e-01
2.344229e+09 7.383910396e-01 -4.741424623e-01
2.398833e+09 7.316331801e-01 -4.827175614e-01
2.454709e+09 7.248753205e-01 -4.912926606e-01
2.511886e+09 7.181174609e-01 -4.998677597e-01
2.570396e+09 7.113596013e-01 -5.084428588e-01
2.630268e+09 7.046017418e-01 -5.170179579e-01
2.691535e+09 6.978438822e-01 -5.255930570e-01
2.754229e+09 6.910860226e-01 -5.341681561e-01
2.818383e+09 6.843281631e-01 -5.427432553e-01
2.884032e+09 6.775703035e-01 -5.513183544e-01
2.951209e+09 6.708124439e-01 -5.598934535e-01
3.019952e+09 6.632120082e-01 -5.684423730e-01
3.090295e+09 6.535272616e-01 -5.769265312e-01
3.162278e+09 6.438425150e-01 -5.854106893e-01
3.235937e+09 6.341577685e-01 -5.938948475e-01
3.311311e+09 6.244730219e-01 -6.023790056e-01
3.388442e+09 6.147882753e-01 -6.108631638e-01
3.467369e+09 6.051035288e-01 -6.193473219e-01
3.548134e+09 5.954187822e-01 -6.278314800e-01
3.630781e+09 5.857340356e-01 -6.363156382e-01
3.715352e+09 5.760492891e-01 -6.447997963e-01
3.801894e+09 5.663645425e-01 -6.532839545e-01
3.890451e+09 5.566797960e-01 -6.617681126e-01
3.981072e+09 5.469950494e-01 -6.702522708e-01
4.073803e+09 5.348404608e-01 -6.783906779e-01
4.168694e+09 5.220450854e-01 -6.864393818e-01
4.265795e+09 5.092497099e-01 -6.944880857e-01
4.365158e+09 4.964543345e-01 -7.025367896e-01
4.466836e+09 4.836589591e-01 -7.105854935e-01
4.570882e+09 4.708635836e-01 -7.186341974e-01
4.677351e+09 4.580682082e-01 -7.266829013e-01
4.786301e+09 4.452728328e-01 -7.347316052e-01
4.897788e+09 4.324774573e-01 -7.427803091e-01
5.011872e+09 4.188016352e-01 -7.504943069e-01
5.128614e+09 3.974581974e-01 -7.552934231e-01
5.248075e+09 3.761147596e-01 -7.600925393e-01
5.370318e+09 3.547713218e-01 -7.648916555e-01
5.495409e+09 3.334278840e-01 -7.696907717e-01
5.623413e+09 3.120844462e-01 -7.744898878e-01
5.754399e+09 2.907410084e-01 -7.792890040e-01
5.888437e+09 2.693975706e-01 -7.840881202e-01
6.025596e+09 2.469740319e-01 -7.886075346e-01
6.165950e+09 2.197882623e-01 -7.918937265e-01
6.309573e+09 1.926024926e-01 -7.951799185e-01
6.456542e+09 1.654167230e-01 -7.984661104e-01
6.606934e+09 1.382309534e-01 -8.017523023e-01
6.760830e+09 1.110451838e-01 -8.050384943e-01
6.918310e+09 8.385941414e-02 -8.083246862e-01
7.079458e+09 5.013585236e-02 -8.058581139e-01
7.244360e+09 9.612984575e-03 -7.974086649e-01
7.413102e+09 -3.090988321e-02 -7.889592158e-01
7.585776e+09 -7.143275100e-02 -7.805097668e-01
7.762471e+09 -1.119556188e-01 -7.720603178e-01
7.943282e+09 -1.524784866e-01 -7.636108688e-01
8.128305e+09 -1.880997841e-01 -7.488422189e-01
8.317638e+09 -2.215292206e-01 -7.312477786e-01
8.511380e+09 -2.549586571e-01 -7.136533384e-01
8.709636e+09 -2.883880935e-01 -6.960588981e-01
8.912509e+09 -3.218175300e-01 -6.784644579e-01
9.120108e+09 -3.646883706e-01 -6.525035505e-01
9.332543e+09 -4.145162780e-01 -6.203776629e-01
9.549926e+09 -4.643441853e-01 -5.882517753e-01
9.772372e+09 -5.141720927e-01 -5.561258876e-01
1.000000e+10 -5.640000000e-01 -5.240000000e-01
